61

C          -1.171962        2.893861       -3.698285
N          -0.050611        2.274709       -3.016382
C          -0.136462        1.922611       -1.716743
O          -1.107655        2.218463       -1.019889
C           1.063166        1.133109       -1.234928
C          -0.771969       -0.396010        0.213032
C          -0.006779       -0.638052       -0.733392
C           1.073010        1.875228        1.059360
C           0.558605        3.245523        0.903057
C          -0.448257        3.805789        1.874382
O           0.902923        3.952332       -0.059318
C           1.378948        1.250347        2.343796
C           1.298460        2.055868        3.630420
O           1.737839        0.069144        2.425954
N           1.699472        1.336384       -0.066565
C           3.049660        0.760266        0.052167
C           0.392997       -1.743568       -1.663712
O           1.794381       -1.801078       -1.891939
C           2.599092       -2.482014       -0.942544
C          -0.143673       -1.452067       -3.097705
F           0.544830       -0.480959       -3.714183
F          -1.433822       -1.066583       -3.064763
F          -0.052141       -2.536787       -3.870530
C          -0.229951       -3.099428       -1.224476
C          -0.103467       -3.658016        0.200571
C          -0.190437       -2.802697        1.472715
C          -1.496396       -2.118374        1.861504
C          -1.880901       -0.807674        1.072834
C          -2.275824        0.268088        2.113926
F          -3.284177       -0.133480        2.905299
F          -2.666820        1.406296        1.521162
F          -3.343950       -0.035771       -0.671036
C          -3.112743       -1.055533        0.145592
F          -4.234899       -1.273728        0.848795
F          -2.924116       -2.149325       -0.620911
F          -1.244246        0.551831        2.923393
H          -0.868042        3.154500       -4.712318
H          -2.033291        2.202497       -3.749335
H          -1.488068        3.804110       -3.171931
H           0.719106        1.920092       -3.579732
H           1.721096        0.795503       -2.034532
H           0.051697        4.512192        2.557708
H          -0.970584        3.049040        2.471422
H          -1.187895        4.385871        1.300704
H           0.257738        2.146804        3.964524
H           1.853933        1.489999        4.395887
H           1.719691        3.059561        3.514638
H           3.513252        0.766269       -0.935335
H           3.023389       -0.253544        0.451516
H           3.638965        1.398306        0.726054
H           2.356558       -2.197256        0.091042
H           3.641703       -2.198012       -1.161875
H           2.511109       -3.582330       -1.045254
H          -1.288483       -3.036075       -1.473344
H           0.194313       -3.849774       -1.906641
H          -0.884869       -4.425324        0.262441
H           0.843490       -4.211479        0.273067
H           0.621513       -2.062207        1.485916
H           0.025598       -3.494077        2.300335
H          -2.344285       -2.823730        1.798375
H          -1.409759       -1.839641        2.916006
