61

C           3.693115       -0.407190        1.940579
N           2.304969       -0.824661        1.894350
C           1.827012       -1.494039        0.829317
O           2.542570       -1.888935       -0.103333
C           0.357347       -1.803094        0.953158
C           0.016259        0.445724       -0.422167
C          -0.334131        0.149585        0.733800
C          -0.322196       -2.139787       -1.341706
C          -1.640758       -1.861037       -1.962071
C          -1.916451       -2.177889       -3.412433
O          -2.549620       -1.375279       -1.280561
C           0.715909       -2.863228       -2.091228
C           1.100834       -2.469340       -3.504820
O           1.268358       -3.862842       -1.612979
N          -0.402403       -2.422425        0.031262
C          -1.525408       -3.225437        0.546113
C          -0.894523        0.744625        1.999801
O           0.229137        0.982650        2.825991
C           0.054050        1.562269        4.121297
C          -1.883948       -0.223580        2.712183
F          -1.270842       -1.264842        3.269397
F          -2.560029        0.371628        3.713619
F          -2.805717       -0.683120        1.849159
C          -1.711512        2.031047        1.691876
C          -0.932197        3.289517        1.300281
C          -0.646057        3.535746       -0.175319
C           0.598102        2.861572       -0.743386
C           0.451905        1.447780       -1.403208
C           1.877212        1.109560       -1.907358
F          -1.803601        1.455159       -2.189459
F          -0.393227        2.667403       -3.298673
F           2.276580        1.962636       -2.867513
C          -0.535169        1.526557       -2.604744
F           1.997663       -0.117045       -2.411393
F           2.759542        1.204796       -0.907539
F          -0.353246        0.523018       -3.473214
H           4.361334       -1.279802        1.878017
H           3.866749        0.107458        2.891169
H           3.947978        0.272991        1.114202
H           1.623081       -0.312955        2.474456
H           0.121391       -2.091192        1.978789
H          -1.456902       -1.446922       -4.087894
H          -3.003884       -2.134530       -3.568093
H          -1.545812       -3.170034       -3.687725
H           0.670214       -1.520784       -3.847982
H           0.781857       -3.278207       -4.192989
H           2.192173       -2.416647       -3.562221
H          -1.837992       -3.939878       -0.226120
H          -2.378363       -2.610094        0.833325
H          -1.173858       -3.789616        1.416896
H          -0.530978        2.485262        4.096598
H           1.073881        1.799794        4.470562
H          -0.399948        0.855253        4.825346
H          -2.444270        1.773631        0.911789
H          -2.280653        2.262645        2.599972
H           0.009445        3.335365        1.869873
H          -1.542306        4.141806        1.655348
H          -1.544974        3.311186       -0.787817
H          -0.488327        4.614714       -0.295655
H           1.338515        2.747217        0.053140
H           1.052117        3.515838       -1.512063
