61

C          -3.950555        2.837358        0.646988
N          -3.093936        1.835735        1.247139
C          -1.829363        1.656955        0.824856
O          -1.308950        2.398411       -0.009377
C          -1.182454        0.438291        1.469997
C           0.527950        0.172144       -0.684959
C          -0.463704       -0.472677       -0.280558
C           1.041995        1.256437        1.867246
C           2.420381        0.758607        2.086959
C           2.755269       -0.713921        1.986329
O           3.337632        1.562131        2.277505
C           0.799262        2.723583        1.885411
C           1.796352        3.697185        1.297722
O          -0.218957        3.171165        2.416384
N          -0.043274        0.439766        2.180954
C           0.089240       -0.686083        3.128968
C          -1.304636       -1.694495       -0.531931
O          -1.427788       -2.349730        0.719680
C          -2.310297       -3.457647        0.852360
C          -2.685652       -1.231991       -1.062754
F          -3.361873       -2.229101       -1.660129
F          -2.554642       -0.246043       -1.974472
F          -3.476026       -0.761121       -0.078619
C          -0.659621       -2.610664       -1.604336
C           0.878049       -2.726824       -1.559282
C           1.569201       -1.998086       -2.724814
C           1.169603       -0.539017       -2.975555
C           1.405376        0.485268       -1.834736
C           2.906244        0.528196       -1.476227
F           3.285971       -0.608707       -0.881821
F           3.675194        0.670296       -2.573773
F           1.112433        2.875133       -1.524765
C           0.986739        1.880040       -2.408753
F           3.230304        1.530324       -0.647635
F           1.703145        2.218908       -3.481163
F          -0.308907        1.850410       -2.795639
H          -3.488764        3.837900        0.722626
H          -4.128337        2.615530       -0.415441
H          -4.909995        2.850219        1.177384
H          -3.516359        1.136648        1.851880
H          -1.920294       -0.247030        1.882796
H           3.748117       -0.785074        1.523317
H           2.825751       -1.150147        2.992910
H           2.031041       -1.299354        1.405148
H           1.233648        4.483883        0.790971
H           2.348021        4.160153        2.125991
H           2.509857        3.239530        0.610086
H           0.875206       -0.474027        3.854412
H           0.299965       -1.622789        2.596715
H          -0.864179       -0.783926        3.665153
H          -2.154703       -3.833808        1.868605
H          -3.368748       -3.163210        0.759747
H          -2.095376       -4.265323        0.137449
H          -0.980178       -2.262799       -2.594271
H          -1.127675       -3.600832       -1.491485
H           1.141976       -3.792808       -1.631637
H           1.258386       -2.396675       -0.590758
H           2.654294       -2.091419       -2.612426
H           1.309963       -2.535561       -3.656281
H           1.710987       -0.191799       -3.868099
H           0.097690       -0.487515       -3.221992
