56

C           3.494868       -2.897068        1.554572
N           2.429430       -1.927409        1.758856
C           2.562232       -0.678788        1.258721
O           3.655001       -0.262895        0.859478
C           1.312732        0.160710        1.394082
C           1.427647        1.499195        2.052355
O           0.486185        2.222816        2.326133
O           2.692824        1.852437        2.287526
C           2.912849        3.193556        2.770349
C          -0.734766        0.537603       -0.793247
C           0.319657        1.206216       -0.720357
C           1.020632        2.336069       -1.312428
Cl          0.645671        3.874555       -0.373194
Br          3.042722        2.116203       -1.209736
C           0.732405        2.545769       -2.809993
C          -0.647416        3.051497       -3.215939
C          -1.825869        2.075934       -3.287526
C          -2.577724        1.763415       -1.986114
C          -2.129809        0.518523       -1.250925
F          -2.972400        0.332896       -0.163319
F          -2.343387       -0.577724       -2.064020
C          -0.318967       -1.343469        0.496348
C           0.474114       -1.844849       -0.686492
C          -0.220812       -2.863809       -1.570912
O           1.598514       -1.465069       -0.958238
C          -1.291124       -2.415326        0.988423
O          -0.794908       -3.322172        1.663943
N          -2.582796       -2.378353        0.641735
C          -3.495636       -3.417985        1.071120
N           0.153662       -0.517382        1.499007
C          -0.882964       -0.141292        2.493611
H           3.227600       -3.825869        2.064733
H           3.649727       -3.097519        0.486587
H           4.455881       -2.523233        1.987047
H           1.513998       -2.288343        1.972255
H           2.520575        3.924155        2.052502
H           2.433279        3.339573        3.736696
H           3.998748        3.302216        2.864393
H           1.466319        3.282673       -3.161645
H           0.953238        1.595473       -3.305673
H          -0.926082        3.919228       -2.587760
H          -0.515254        3.460831       -4.227025
H          -1.511178        1.138445       -3.763167
H          -2.565644        2.512439       -3.974807
H          -2.493412        2.611156       -1.269275
H          -3.649241        1.619523       -2.184658
H           0.346729       -2.977731       -2.497404
H          -1.259553       -2.592338       -1.781434
H          -0.231231       -3.830592       -1.042699
H          -2.922003       -1.563585        0.145025
H          -3.141194       -4.404676        0.752874
H          -4.474555       -3.229636        0.617204
H          -3.611327       -3.441367        2.169678
H          -1.570533        0.606627        2.065884
H          -1.443534       -1.033382        2.780640
H          -0.393919        0.262126        3.386211
