56

C          -3.012834        3.906479       -1.981609
N          -2.217171        2.788982       -1.512404
C          -2.550442        2.084260       -0.436991
O          -3.546414        2.309308        0.259564
C          -1.694626        0.870085       -0.089891
C          -2.094922       -0.284087       -0.965332
O          -2.523032       -0.106795       -2.087094
O          -1.994538       -1.489105       -0.419880
C          -2.311488       -2.620556       -1.229767
C           0.729439       -0.631472       -0.256051
C           0.618589        0.402029       -0.955865
C           1.237412        1.356988       -1.845058
Cl          0.398343        1.356421       -3.462053
Br          1.070789        3.236744       -1.064654
C           2.754511        1.187851       -2.023195
C           3.258958       -0.134491       -2.611276
C           3.463781       -1.314439       -1.650184
C           2.274258       -2.259714       -1.422043
C           1.392458       -1.959879       -0.219922
F           2.130622       -2.094757        0.930678
F           0.441366       -2.946129       -0.167509
C          -0.457227       -0.319228        1.587373
C          -1.263564       -1.514315        1.992380
C          -2.741335       -1.330801        2.236700
O          -0.733795       -2.581136        2.302302
C           0.796023       -0.005873        2.418555
O           1.474005        0.990204        2.171423
N           1.118315       -0.892369        3.394953
C           2.434588       -0.829749        4.009084
N          -1.159310        0.808765        1.142126
C          -1.062954        2.078033        1.894711
H          -2.482160        4.397166       -2.795982
H          -3.175900        4.630913       -1.164590
H          -3.996734        3.566620       -2.340005
H          -1.419627        2.492892       -2.071720
H          -1.650713       -2.664058       -2.098176
H          -3.356537       -2.572676       -1.555269
H          -2.159312       -3.500679       -0.574989
H           3.208861        1.341931       -1.043328
H           3.087953        2.017541       -2.664217
H           2.612867       -0.432463       -3.456781
H           4.233059        0.101686       -3.054533
H           4.271760       -1.929193       -2.074093
H           3.846283       -0.949009       -0.681981
H           2.635134       -3.287348       -1.251444
H           1.622641       -2.286845       -2.309453
H          -3.189904       -0.489430        1.700542
H          -3.274652       -2.267275        2.001768
H          -2.846343       -1.142811        3.313637
H           0.621759       -1.776574        3.391558
H           2.464308       -1.530890        4.859587
H           3.223969       -1.119082        3.289081
H           2.652600        0.174244        4.369605
H          -0.715239        1.866870        2.911050
H          -0.380303        2.783299        1.407529
H          -2.063577        2.513920        1.953129
