61

C           2.730994        0.030239       -4.249221
N           1.462018       -0.295388       -3.626643
C           1.309573       -0.160117       -2.293123
O           2.259184       -0.022881       -1.526704
C          -0.148589       -0.437725       -1.892839
C           0.180701       -0.958712        0.167353
C           0.245140        0.101403        0.836245
C          -1.061953        1.700579       -1.144656
C          -2.236451        2.194522       -0.375082
C          -3.106490        1.231990        0.422880
O          -2.493741        3.393982       -0.303902
C          -0.016455        2.612273       -1.624946
C           0.080985        4.044197       -1.153167
O           0.790239        2.243174       -2.485567
N          -1.158959        0.443344       -1.747815
C          -2.494256       -0.115543       -2.076181
C           0.651859        0.772054        2.101918
O           1.999191        1.201520        2.033143
C           2.374993        2.100572        0.986484
C          -0.227017        1.980486        2.527573
F           0.326879        2.607124        3.571499
F          -1.457592        1.599253        2.906668
F          -0.385562        2.901986        1.560837
C           0.609514       -0.233482        3.292147
C          -0.603973       -1.180327        3.294833
C          -0.249383       -2.629327        2.964276
C           0.664026       -2.869277        1.757843
C           0.194572       -2.459076        0.333189
C           1.230009       -3.149873       -0.622799
F          -1.330270       -4.301669        0.508806
F          -1.532452       -3.059659       -1.246784
F           1.026643       -2.920011       -1.936061
C          -1.214923       -3.036472        0.053751
F           2.476501       -2.740965       -0.342693
F           1.190661       -4.487374       -0.478349
F          -2.154358       -2.309314        0.683761
H           2.674063       -0.212289       -5.315577
H           2.969703        1.103146       -4.137697
H           3.547189       -0.553556       -3.788256
H           0.630614       -0.284780       -4.209311
H          -0.472515       -1.347283       -2.388616
H          -4.052632        1.049951       -0.106743
H          -2.626481        0.274523        0.642197
H          -3.352648        1.743514        1.364868
H           1.112097        4.379115       -1.345982
H          -0.189327        4.201591       -0.113861
H          -0.601287        4.659737       -1.767784
H          -3.202046        0.716121       -2.253291
H          -2.406104       -0.682082       -3.009141
H          -2.878104       -0.777069       -1.297154
H           3.472075        2.133689        1.009932
H           1.979964        3.114110        1.148610
H           2.057522        1.723258        0.014820
H           0.682908        0.343748        4.222483
H           1.547971       -0.813750        3.218210
H          -1.069478       -1.163066        4.292923
H          -1.381475       -0.811770        2.609698
H          -1.170210       -3.215956        2.878176
H           0.292130       -3.055324        3.820875
H           1.628174       -2.371881        1.909123
H           0.876637       -3.945200        1.724823
