61

C          -4.180470       -0.218927        0.424051
N          -2.750578       -0.030216        0.589312
C          -2.271481        0.657468        1.627676
O          -2.953274        1.018823        2.581625
C          -0.759970        0.899856        1.786708
C           0.144871       -0.146657       -0.647402
C           0.162575       -0.533734        0.548368
C          -0.126616        2.550575        0.131674
C           1.115812        3.144363       -0.426521
C           2.455737        2.526639       -0.144266
O           1.074299        4.110131       -1.197865
C          -1.431089        2.962764       -0.387694
C          -1.581214        3.651326       -1.731239
O          -2.454403        2.803234        0.290725
N          -0.065329        1.980995        1.405243
C           0.974820        2.417278        2.361682
C           0.508413       -1.704318        1.419303
O          -0.668417       -2.033639        2.130295
C          -0.723147       -3.271504        2.832956
C           1.613087       -1.305682        2.466133
F           1.103257       -0.698593        3.541190
F           2.295223       -2.381459        2.911265
F           2.532771       -0.476326        1.940134
C           1.049867       -2.872007        0.544510
C           2.194208       -2.468043       -0.412359
C           1.829437       -2.587947       -1.895965
C           0.493369       -2.006451       -2.327664
C           0.194355       -0.479929       -2.084830
C          -1.188827       -0.230095       -2.730554
F           1.471083       -0.060313       -4.078282
F          -2.102629       -1.071268       -2.198635
F           0.927719        1.667611       -2.899477
C           1.269715        0.363042       -2.826459
F           2.439227        0.297115       -2.184431
F          -1.641841        1.018794       -2.525272
F          -1.186267       -0.445308       -4.049392
H          -4.696654        0.743950        0.346039
H          -4.346737       -0.790836       -0.503813
H          -4.605026       -0.778255        1.265526
H          -2.117710       -0.333336       -0.144520
H          -0.523608        0.605144        2.813366
H           2.417704        1.502905        0.257886
H           3.024182        2.525058       -1.076312
H           3.019525        3.161623        0.573987
H          -1.485607        4.736742       -1.576176
H          -0.833974        3.353663       -2.475896
H          -2.594942        3.449050       -2.091931
H           1.851920        1.758628        2.353680
H           0.527271        2.411947        3.367435
H           1.281299        3.443971        2.133755
H           0.117381       -3.387907        3.535013
H          -1.658417       -3.245747        3.405524
H          -0.745518       -4.128422        2.152246
H           0.175650       -3.247396       -0.010519
H           1.369333       -3.675657        1.207866
H           2.546205       -1.459061       -0.204826
H           3.057703       -3.125816       -0.219833
H           2.645151       -2.173800       -2.504382
H           1.778072       -3.657729       -2.165648
H           0.357119       -2.197284       -3.401186
H          -0.324615       -2.539035       -1.821824
