61

C          -0.946802        4.358970       -1.924442
N          -0.155168        3.582600       -0.980363
C          -0.268769        2.244872       -0.932511
O          -1.150425        1.637053       -1.532610
C           0.750546        1.651200        0.051016
C          -0.191105       -0.954119       -0.127027
C          -0.345724        0.022219        0.645794
C           2.186469        0.244003       -1.295923
C           3.180125       -0.819283       -1.082025
C           3.362079       -1.448318        0.287514
O           3.830857       -1.270374       -2.031988
C           1.801330        0.687317       -2.643628
C           2.003607       -0.204612       -3.840104
O           1.359397        1.828126       -2.836850
N           1.947872        1.134414       -0.248461
C           2.970826        1.367727        0.782464
C          -1.071361        0.476952        1.877303
O          -1.143292        1.899433        1.825353
C          -1.728565        2.653288        2.873626
C          -0.192892        0.044883        3.101618
F           0.881001        0.834294        3.229731
F           0.238802       -1.219756        2.981092
F          -0.878804        0.111141        4.252161
C          -2.497219       -0.106562        1.964001
C          -2.742827       -1.606100        2.107988
C          -2.841055       -2.460109        0.832712
C          -1.537362       -3.042477        0.271781
C          -0.659497       -2.212509       -0.724133
C           0.505862       -3.180420       -1.096955
F          -2.458944       -0.999401       -1.738059
F           1.347573       -2.665976       -2.003734
F          -2.013514       -2.946352       -2.562752
C          -1.462013       -1.844767       -2.006535
F           1.219811       -3.479038       -0.005040
F           0.055273       -4.333611       -1.610379
F          -0.694624       -1.271335       -2.947017
H          -0.728387        5.418687       -1.778236
H          -2.019389        4.186997       -1.762731
H          -0.708808        4.086972       -2.964033
H           0.638408        4.031776       -0.533678
H           0.785322        2.274654        0.934515
H           3.490695       -2.534263        0.119882
H           2.540673       -1.279732        0.963453
H           4.298540       -1.080156        0.730678
H           3.005250       -0.012116       -4.255953
H           1.266780        0.094142       -4.608114
H           1.927120       -1.269192       -3.639045
H           3.965398        1.152486        0.372060
H           2.793429        0.759808        1.680455
H           2.938494        2.427920        1.052083
H          -2.799530        2.440204        3.008409
H          -1.211797        2.521577        3.837368
H          -1.620539        3.706207        2.574914
H          -2.960539        0.388925        2.833126
H          -3.027118        0.286193        1.080584
H          -2.015602       -2.061939        2.800452
H          -3.714633       -1.699242        2.616222
H          -3.444016       -3.337343        1.092862
H          -3.409562       -1.929210        0.062618
H          -1.773598       -3.980467       -0.240173
H          -0.878061       -3.306265        1.108663
