56

C          -2.169047        1.777994       -3.086519
N          -1.649484        1.261309       -1.837052
C          -1.398434        2.059689       -0.788338
O          -1.664657        3.270588       -0.809378
C          -0.768200        1.413110        0.427618
C           0.052622        2.319082        1.248067
O           0.009176        2.394078        2.473852
O           0.807002        3.140269        0.504635
C           1.564767        4.123859        1.203471
C           0.552044       -1.173600       -0.268490
C           0.994772       -0.072877       -0.629631
C           2.042480        0.578126       -1.418981
Cl          1.439556        1.933107       -2.440046
Br          3.416511        1.363214       -0.116618
C           2.844288       -0.416914       -2.275737
C           2.103894       -1.111398       -3.424112
C           0.914680       -2.022041       -3.095886
C           1.104354       -2.978854       -1.903608
C           0.305616       -2.566804       -0.682635
F           0.518230       -3.455430        0.338283
F          -1.049074       -2.692301       -1.003683
C          -0.769854       -0.643214        1.673737
C          -1.322629       -1.979231        2.095706
C          -2.568672       -2.640650        1.564705
O          -0.613844       -2.602679        2.879798
C           0.408303       -0.289567        2.615556
O           1.593541       -0.276641        2.296531
N          -0.012714       -0.022215        3.860171
C           0.904291        0.452823        4.873572
N          -1.404248        0.321707        0.955687
C          -2.819584        0.075700        0.552503
H          -1.413625        2.413601       -3.590422
H          -3.069772        2.384732       -2.919410
H          -2.415115        0.942348       -3.746902
H          -1.275002        0.324368       -1.829388
H           2.148945        4.657905        0.442552
H           0.901942        4.827189        1.731428
H           2.245425        3.644716        1.929597
H           3.264436       -1.160110       -1.575917
H           3.698351        0.129585       -2.696290
H           2.864544       -1.713834       -3.938501
H           1.773054       -0.356079       -4.147268
H           0.015313       -1.392638       -2.923547
H           0.686320       -2.603248       -3.987005
H           0.777849       -3.998626       -2.148067
H           2.170913       -3.054143       -1.604647
H          -2.744986       -2.484741        0.495088
H          -3.436109       -2.272939        2.127744
H          -2.465421       -3.719597        1.772844
H          -1.008873        0.050939        4.034793
H           0.383854        0.479070        5.835847
H           1.768635       -0.209686        4.950059
H           1.268972        1.477460        4.631796
H          -3.260184        1.022451        0.252579
H          -3.364541       -0.291063        1.405553
H          -2.880611       -0.637900       -0.285693
