56

C           5.144861       -0.003959        0.625599
N           3.980084       -0.012668       -0.250609
C           2.755665       -0.287731        0.237156
O           2.587520       -0.674969        1.393696
C           1.578419       -0.111687       -0.721501
C           1.825491        0.698394       -1.946349
O           2.363827        1.791365       -1.947239
O           1.593737       -0.000778       -3.064960
C           1.773814        0.693930       -4.299584
C          -0.765879        0.335584        0.898487
C           0.217228        1.097878        0.717851
C           0.678980        2.429265        1.137305
Cl          2.464195        2.567789        1.392650
Br          0.231351        3.752078       -0.337986
C          -0.025205        2.922191        2.418305
C          -1.562919        2.936778        2.355631
C          -2.257647        1.920096        3.258161
C          -1.806316        0.466116        3.171151
C          -1.825270       -0.149495        1.779268
F          -1.697272       -1.525510        1.946414
F          -3.058977        0.026267        1.198117
C          -0.582687       -1.047214       -1.131384
C          -1.209797        0.138713       -1.781187
C          -2.703331        0.074379       -2.007671
O          -0.582145        1.126178       -2.141839
C          -1.333583       -2.340380       -1.460277
O          -1.164009       -2.825797       -2.583384
N          -2.173990       -2.841098       -0.551056
C          -2.943745       -4.037405       -0.804560
N           0.734290       -1.183451       -0.816110
C           1.088348       -2.467823       -0.176924
H           6.036162        0.199110        0.024163
H           5.256484       -0.970301        1.136212
H           5.040660        0.779276        1.398800
H           4.080948        0.394902       -1.172987
H           1.497053       -0.013566       -5.088975
H           1.120037        1.580087       -4.339906
H           2.820484        1.004613       -4.424181
H           0.337454        2.250602        3.223860
H           0.372728        3.917973        2.643002
H          -1.919096        3.932237        2.646331
H          -1.890992        2.795048        1.315951
H          -2.140236        2.216701        4.313665
H          -3.342766        1.975966        3.054778
H          -0.785664        0.331823        3.557921
H          -2.469486       -0.163886        3.787785
H          -2.909695       -0.610851       -2.844355
H          -3.057129        1.070689       -2.265812
H          -3.234395       -0.303431       -1.122612
H          -2.207408       -2.415012        0.368225
H          -3.522383       -3.927537       -1.747285
H          -2.295393       -4.919156       -0.911200
H          -3.636921       -4.199902        0.025170
H           2.168495       -2.590791       -0.157567
H           0.680313       -2.517209        0.841454
H           0.675708       -3.284422       -0.769606
