16
reaction_000_gen_9_frame_0000
H          -1.346126        2.253911        0.789429
C          -0.942325       -0.665437        1.630887
H           0.208998        0.643237       -1.884249
C           0.141906       -1.010458        0.688366
H           1.216810        0.544218       -0.097845
H          -1.277392        0.912277       -0.186934
H          -0.209458        0.757379       -1.528773
C           0.894416       -0.360591        3.508237
H          -1.289090       -0.612884        0.491569
C          -1.604124        0.449420       -1.781201
H           0.038479       -1.508752        0.135524
C           0.704892       -0.446034       -0.736009
H           1.443909       -0.215745       -0.616984
C           0.616681        0.380763       -2.009622
H          -0.291650       -0.681461        0.724407
H           1.694075       -0.439843        0.873196
16
reaction_000_gen_9_frame_0001
H          -0.321034        1.482758        0.454746
C          -1.196465       -0.826025        0.605407
H           0.704005       -0.391254       -1.978582
C           0.584946       -0.606382        1.377047
H           1.407908        0.376982        0.000720
H          -2.290871        1.389924        0.314482
H          -0.977225        0.765503       -1.400683
C          -0.522089       -0.718532        2.723669
H          -0.815088        0.332918        0.759481
C          -0.414649        0.753773       -0.802996
H           0.407975       -0.752918       -1.651482
C           0.284668        0.123457       -0.068624
H           1.213786       -0.598231       -1.025156
C           1.269322       -0.512956       -0.364057
H          -1.005858       -0.579639        0.389741
H           1.670669       -0.239377        0.666286
16
reaction_000_gen_9_frame_0002
H          -0.017382        1.530041        0.448060
C          -1.753057       -0.752926        1.246030
H           1.396249       -0.227849       -0.742082
C           0.051832       -0.939297        1.081784
H           1.042729        0.574311        0.600374
H          -2.039979        0.651479        0.864392
H          -1.879404        0.993430       -1.221378
C          -0.451321       -0.642103        1.685551
H           0.151132       -0.495853        1.008876
C          -0.387614        0.501586       -0.911586
H          -0.326303       -0.349619       -0.952563
C           0.214323        1.118517       -2.183741
H           0.454416       -1.243518        0.307254
C           1.252179       -0.405596       -1.291572
H          -0.339547       -0.022394        0.094068
H           2.631748       -0.290207       -0.033465
16
reaction_000_gen_9_frame_0003
H          -0.796305        1.372272       -1.009601
C          -0.687293       -0.797759        2.061402
H           0.764754       -0.395241       -0.049189
C           0.740699       -0.784524       -1.096775
H          -0.041464        0.741705       -0.123458
H          -2.278703        0.897560        0.150161
H          -1.445714        1.660146        0.495212
C           0.273149       -0.087698        1.247540
H           0.504372       -0.150902        1.588960
C           0.363903        0.468013       -0.325136
H          -0.049043       -0.584586        0.067395
C           0.071075        1.579117       -1.742763
H           0.576322       -2.236624        0.699294
C           0.682940       -0.030981       -1.730721
H          -1.465396       -0.212311       -0.350113
H           2.786704       -1.438187        0.117792
16
reaction_000_gen_9_frame_0004
H          -1.685567        0.906176       -0.422163
C          -0.733551       -0.814720        1.675277
H           1.588200       -0.720324        0.003316
C           0.977581       -0.389014       -1.072836
H           0.093907        0.020143       -0.400493
H          -1.916381        0.902158        0.730088
H          -1.761758        0.868473        0.485347
C           0.263522        1.204733        0.781600
H           0.335640        0.546153        1.345330
C           0.570387       -0.388587       -0.604673
H           0.508668       -0.501297       -0.467678
C          -0.158424        1.494629       -2.135737
H           0.258421       -0.670562        1.042937
C          -0.132554       -0.827663       -1.065711
H          -0.798499       -0.217814        0.511892
H           2.590407       -1.412485       -0.406494
16
reaction_000_gen_9_frame_0005
H          -1.048160        1.110673       -1.182248
C          -1.417654       -0.506536        0.907630
H           0.520532       -0.458504        0.143555
C           1.336527       -0.475442       -0.205226
H           0.625152        0.790091       -0.610345
H          -1.888582        0.510260        0.045563
H          -1.521628        0.391754       -0.075662
C           0.582111        0.071846        0.584133
H          -0.064040        0.882855        1.868360
C           1.162796        0.136311       -1.068575
H           1.333916       -0.193548       -0.305910
C          -0.064441        0.812640       -1.401307
H          -0.101219       -0.599931        0.717390
C          -1.205103       -0.348050       -0.452904
H          -0.284005       -0.131716        0.790847
H           2.033798       -1.992704        0.244699
16
reaction_000_gen_9_frame_0006
H          -0.847921        1.724366       -1.305554
C          -1.328671       -0.962438        1.200508
H           0.683622       -1.087026        0.162817
C           1.408237       -0.134482       -0.118869
H           0.618449        0.954188       -1.284845
H          -2.143874        0.649465       -0.178291
H          -1.738592        0.806351        0.732611
C           0.317218       -0.343107        0.151763
H           0.267293        0.111433        1.566776
C           0.800308        0.446323       -0.860707
H           0.905603        0.222342        0.319914
C           0.404407        0.902834       -1.565849
H           0.422243       -0.411686        1.166261
C          -1.614027       -0.271002       -0.889646
H           0.675996       -0.588000        0.730332
H           1.169708       -2.019562        0.172780
16
reaction_000_gen_9_frame_0007
H          -0.655386        1.836916       -0.866588
C          -1.347946       -1.307378        1.075170
H           1.076239       -1.599120       -0.363772
C           1.872175        0.094014        0.587318
H           0.737999        1.642626       -0.623500
H          -1.613721        0.350521        0.049803
H          -1.569301        0.421531        0.950289
C          -0.059062       -0.371538       -0.559248
H           0.705105        0.141222        1.577307
C           1.898805        0.045878       -1.339149
H          -0.349722        0.322201        0.392601
C          -0.494720        0.395975       -1.042515
H           0.451134        0.198310        0.414683
C          -2.804020       -0.341729       -0.870417
H           0.967926       -0.794798        0.565211
H           1.184495       -1.034631        0.052808
16
reaction_000_gen_9_frame_0008
H          -0.490351        1.438885       -1.209683
C          -1.167305       -0.710855        0.939595
H           0.384563       -1.004214       -0.735860
C           1.424639        0.135209        0.664326
H           1.041858        0.904679       -0.531179
H          -1.449005        0.293752       -0.100050
H          -1.367652        0.546839        0.541289
C          -0.124112        0.054957       -0.484757
H           0.853940       -0.660761        1.534968
C           1.940203        0.600546       -1.058939
H          -0.693623       -0.155781        1.313793
C          -0.507042        0.643816       -1.420846
H           0.708903       -0.181776        0.737103
C          -2.961594       -0.568441       -0.765656
H           1.326547        0.056063        0.724932
H           1.080030       -1.392919       -0.149037
16
reaction_000_gen_9_frame_0009
H           0.273132        0.620067       -0.359496
C          -1.287188       -0.971682        1.893711
H           0.505708       -0.160779       -0.874274
C           1.059707        0.371478        1.390698
H           0.283210        0.917208       -0.722845
H          -1.983674       -0.748348        0.140159
H          -1.460750        0.160970       -0.377719
C           0.272480        0.109545       -0.516387
H           0.604475       -0.853484        1.565034
C           2.476337        1.393308       -1.440274
H          -0.783624       -0.249461        0.281599
C          -0.345720        0.979428       -2.175787
H           0.589938       -0.075272        0.705647
C          -2.110183       -0.311192       -0.617253
H           1.419873       -0.326096        1.200760
H           0.486279       -0.855689       -0.093573
16
reaction_000_gen_9_frame_0010
H           0.278052        0.474729       -0.827342
C          -0.862451       -0.915424        1.477931
H           0.348440        0.434641       -0.705640
C           0.968410        0.355919        1.015237
H          -0.193391        1.129923       -0.526816
H          -1.558613       -1.472345       -0.097939
H          -0.714083       -0.175678       -0.401297
C           0.305309        0.086228       -0.592252
H           0.184506       -1.626585        1.474004
C           2.524145        1.274598       -0.876725
H          -1.020113       -0.470749        0.475183
C          -0.920875        0.756521       -1.497518
H           1.223460       -0.156415        0.899327
C          -1.624732        0.194504       -0.533708
H           0.974361        0.114118        0.545184
H           0.087575       -0.003985        0.172372
16
reaction_000_gen_9_frame_0011
H          -0.160220        0.215381       -1.009361
C          -0.418694       -1.172208        1.378983
H           0.255471        0.583339       -0.727938
C           0.356854        0.780739        0.854203
H          -0.522190        1.179886       -0.292947
H          -1.273580       -0.805479       -0.647227
H          -0.672777       -0.071437       -0.260228
C           1.033814       -0.222294       -0.326279
H          -0.477126       -1.458273        1.427694
C           2.287790        1.175276       -0.890137
H          -0.798799       -0.178494        0.390141
C          -0.734403        1.013066       -1.381363
H           1.066647       -0.849830        1.220260
C          -1.858867        0.263862       -0.628550
H           1.815367       -0.286984        0.475744
H           0.100713       -0.166549        0.417006
16
reaction_000_gen_9_frame_0012
H          -0.179324       -0.119544       -1.422939
C          -0.189727       -1.302072        1.168200
H           0.197988        0.623451       -0.884441
C           0.216767        0.464265        0.284365
H          -0.575761        1.334151        0.177950
H          -1.140943       -1.232131       -1.226694
H          -0.700937        0.048402       -0.262149
C           0.745309       -0.378529        0.093239
H          -0.832501       -1.396790        1.387132
C           2.747821        1.405565       -0.559444
H           0.130425        0.414947        0.188783
C          -0.694569        0.405174       -0.645374
H           0.311145       -0.448102        1.432412
C          -1.743685        0.203005       -0.493768
H           1.404455        0.059954        0.407499
H           0.303539       -0.081745        0.355228
16
reaction_000_gen_9_frame_0013
H          -0.681504       -0.193454       -0.896529
C          -0.310359       -1.199256        1.194604
H           0.354422        0.459189       -0.722981
C           0.261372        0.201073       -0.126036
H          -0.446535        1.479663        0.086348
H          -0.964934       -1.099063       -1.655997
H          -0.895154       -0.259279       -0.648190
C           0.761345       -0.650737        0.723854
H          -0.202942       -1.130011        1.146444
C           2.294892        1.655103       -1.270035
H           0.438960        0.395570        0.569776
C          -0.914816        0.260204       -0.462171
H          -0.080082       -0.601169        1.697965
C          -1.689276        0.861475       -0.518563
H           1.172584       -0.093352        0.428441
H           0.902028       -0.085957        0.453070
16
reaction_000_gen_9_frame_0014
H          -0.252354       -0.404970       -0.521009
C          -1.044228       -1.541929        1.146984
H           0.544823        0.723656       -1.079190
C           0.493719        0.413880        0.189530
H          -0.195105        1.648744       -0.050350
H          -1.314626       -1.093223       -1.009835
H          -1.188711       -0.514288       -0.628228
C           0.920063       -0.520433        1.325583
H          -0.029184       -1.122339        1.640963
C           2.128835        1.898864       -1.093744
H           0.668337       -0.155517        0.404858
C          -0.448256        0.349577       -1.109541
H          -0.777740       -0.941949        1.492208
C          -1.437280        0.993662       -0.680334
H           0.979999        0.196419       -0.027476
H           0.951708        0.069846       -0.000419
16
reaction_000_gen_9_frame_0015
H          -0.287968       -0.120141       -0.422681
C          -1.204148       -2.035526        1.121751
H           0.571481        0.425907       -1.155160
C           0.392901        0.200290       -0.039346
H          -0.618849        1.350654       -0.208804
H          -1.194348       -1.217857       -0.793117
H          -1.590634        0.142414       -1.020366
C           1.049065       -0.726608        1.481757
H           0.589921       -1.120685        1.540313
C           1.773709        1.581531       -1.010588
H           0.783190       -0.394275       -0.022929
C          -0.303000        0.023387       -1.013814
H          -0.303112       -0.417781        2.087906
C          -0.845541        1.378488       -0.721636
H          -0.085051        0.589114       -0.204891
H           1.272383        0.341085        0.381605
16
reaction_000_gen_9_frame_0016
H           0.101206       -0.530904       -0.167855
C          -1.189732       -1.557716        1.050590
H           1.218425        0.797870       -0.726070
C          -0.010110        0.319404        0.202592
H          -0.606476        0.629948        0.271655
H          -2.044011       -1.220487       -0.583775
H          -1.212689        0.332347       -1.530356
C           1.193836       -1.017049        1.652920
H           0.338247       -1.434687        1.217722
C           1.866889        1.869995       -1.457894
H           0.603360       -0.798689       -0.189509
C          -0.195867       -0.029850       -1.142743
H          -0.091398       -0.471705        1.803720
C          -0.969765        1.648587       -0.393472
H          -0.184981        0.822305       -0.594753
H           1.183064        0.640630        0.587229
16
reaction_000_gen_9_frame_0017
H          -0.814110       -0.344356       -0.479927
C          -1.166214       -1.561891        0.974499
H           1.213287        0.994447       -1.021312
C           0.435851       -0.038350        0.523538
H          -0.126567        0.331069        0.009325
H          -1.754083       -1.249464       -0.645044
H          -0.664339        0.794465       -1.028606
C           0.834176       -0.964341        1.318532
H           0.383230       -1.520161        1.682684
C           1.633858        1.780625       -0.964734
H           0.624078       -1.280639        0.257273
C          -0.536047       -0.023465       -1.384093
H          -0.516042       -0.548831        1.565451
C          -0.346824        1.779750       -0.464046
H          -0.840403        0.892483       -0.862970
H           1.640149        0.958659        0.519428
16
reaction_000_gen_9_frame_0018
H          -0.918470       -0.583047       -0.096155
C          -1.019361       -1.800699        0.797612
H           1.425046        0.954241       -1.202277
C           0.191227       -0.264181        0.285921
H          -0.359242       -0.199649        0.425711
H          -2.095390       -0.929630       -0.073149
H          -0.287245        1.031770       -0.951946
C           0.672477       -0.692321        1.235242
H           1.044661       -1.355446        2.232739
C           1.759060        1.519237       -0.674163
H           0.533448       -1.227475        0.350821
C          -0.507174        0.604591       -1.258093
H          -0.259946       -1.077266        1.086128
C          -0.453216        1.500378       -0.811967
H          -1.067348        1.072254       -1.309933
H           1.341473        1.447244       -0.036491
16
reaction_000_gen_9_frame_0019
H          -1.159059       -0.718346        0.007397
C          -0.864979       -1.751905        1.186157
H           1.382282        1.328504       -0.947162
C           0.355142       -0.255314       -0.315201
H          -0.192345       -0.228139        0.541596
H          -1.813994       -0.980534       -0.027707
H          -0.360780        1.291399       -0.824466
C           0.055138       -0.561485        1.212924
H           1.159793       -1.005007        1.508355
C           2.090722        1.352958       -0.429862
H           0.497666       -1.336573        0.140696
C          -0.609251        0.307845       -1.232724
H          -0.088411       -0.606083        1.249708
C          -0.406085        1.670171       -0.661207
H          -1.123208        0.749829       -1.615031
H           1.077369        0.742680        0.206528
16
reaction_000_gen_9_frame_0020
H          -0.761011       -0.237586        0.037668
C          -0.729092       -1.787305        0.895105
H           1.320196        1.250140       -0.550578
C           0.307336       -0.694806       -0.244893
H          -0.612849       -0.014984        0.409675
H          -1.913870       -1.408582       -0.046764
H          -0.486077        1.282411       -0.786726
C           0.498303       -0.429036        0.657069
H           1.020965       -0.787392        1.648861
C           2.127034        1.037145       -0.811381
H           0.305398       -1.406821       -0.018712
C          -1.045284        0.452747       -0.938394
H           0.548974       -0.707359        1.651265
C           0.030579        1.424970       -0.936195
H          -1.620394        1.098374       -1.516341
H           1.009791        0.928082        0.550341
16
reaction_000_gen_9_frame_0021
H          -0.785845       -0.427936        0.205174
C          -1.012849       -1.053161        0.982278
H           1.197251        1.364703       -0.215941
C           0.180149       -1.060945       -0.306964
H           0.060094        0.492869        0.419175
H          -1.702924       -1.286997        0.265064
H          -0.842398        1.061324       -0.421921
C           0.698177       -0.489976        0.570785
H           1.507027       -1.150562        1.115436
C           2.374070        1.316909       -0.734599
H           0.059381       -1.843046       -0.286663
C          -1.314871        0.900774       -1.035146
H           0.451582       -0.284205        1.417373
C          -0.203200        1.351198       -1.138337
H          -1.548719        0.186477       -1.591518
H           0.883077        0.922574        0.755804
16
reaction_000_gen_9_frame_0022
H          -0.840604       -0.648113        0.085367
C          -0.812823       -0.436124        1.184674
H           1.486394        1.327023       -0.772758
C          -0.119534       -1.363654       -0.478339
H           0.099304        0.143886        0.316593
H          -1.767585       -1.384253        0.730295
H          -0.675321        1.421727       -0.551774
C           0.798875       -0.645791        0.002303
H           1.456918       -1.050046        1.111709
C           1.855330        0.994894       -0.662945
H          -0.249076       -1.956216       -0.522818
C          -1.148736        0.994067       -0.653016
H           0.770335        0.211953        1.715691
C          -0.192593        1.498033       -1.019128
H          -1.495553       -0.025813       -1.272709
H           0.834668        0.918430        0.786854
16
reaction_000_gen_9_frame_0023
H          -0.677951       -0.190017        0.057368
C          -0.930191       -0.351409        0.926655
H           1.866690        1.599123       -0.228779
C          -0.218348       -1.552422       -0.855274
H          -0.072780        0.010285        0.252356
H          -1.734816       -1.423004        1.058355
H          -0.905806        1.461877       -0.273806
C           0.759777       -0.968450        0.163296
H           1.458218       -1.355013        0.843662
C           1.758619        0.800747       -0.548757
H           0.268402       -1.968340       -0.394677
C          -1.135488        0.804447       -0.723079
H           0.171872        0.420993        1.861135
C           0.171276        1.650020       -0.988591
H          -1.360181        0.122084       -1.591842
H           0.580708        0.939077        0.441977
16
reaction_000_gen_9_frame_0024
H          -0.597390       -0.194785       -0.484801
C          -1.058120       -0.504639        1.493856
H           2.077964        1.423503       -0.402856
C          -0.056618       -1.723915       -0.924971
H          -0.036983       -0.038473        0.421059
H          -2.066133       -1.392879        0.977460
H          -0.787269        1.785862       -0.016603
C           0.841460       -1.117870        0.206210
H           1.123628       -1.095275        0.907067
C           2.370420        0.756067       -0.572706
H           0.371697       -1.932551       -0.430297
C          -1.531626        0.747398       -0.414457
H           0.324634        0.601253        1.423364
C           0.203328        1.821681       -0.941053
H          -1.731082       -0.117562       -1.738481
H           0.552090        0.982184        0.497209
16
reaction_000_gen_9_frame_0025
H          -0.642970       -0.366984       -0.722198
C          -0.426642       -0.393141        1.685096
H           2.028337        1.252544       -0.186691
C          -0.204940       -1.957528       -0.452277
H          -0.180321       -0.038000        0.338984
H          -1.791022       -1.523545        0.977766
H          -0.517783        1.396633       -0.651362
C           1.162994       -1.267928       -0.204028
H           0.722504       -0.764502        0.916026
C           2.239657        0.783957       -0.442957
H           0.552864       -2.007143       -0.365633
C          -1.418688        0.606250       -0.118667
H           0.084539        0.940599        1.396336
C           0.356480        1.943357       -0.956542
H          -2.236320        0.347339       -1.496095
H           0.271309        1.048095        0.282243
16
reaction_000_gen_9_frame_0026
H          -0.767648       -0.961866       -0.868361
C          -0.649819       -0.664594        1.385494
H           2.158672        1.310535       -0.517260
C          -0.588482       -1.678042       -0.358644
H          -0.079253        0.154790        0.525315
H          -1.286655       -1.222235        0.612121
H          -0.356372        1.350580       -0.436752
C           1.425532       -1.217307        0.108572
H           0.246395       -1.118054        0.984576
C           2.350555        0.680627       -0.564426
H           0.209537       -1.838389       -0.064256
C          -1.336935        0.848614       -0.265838
H           0.438470        1.261174        1.395768
C           0.266467        1.560842       -0.706358
H          -2.320163        0.417231       -1.493999
H           0.289698        1.116095        0.264049
16
reaction_000_gen_9_frame_0027
H          -0.631519       -1.016039       -1.034739
C          -0.439560       -0.705668        1.403627
H           2.243684        1.533053       -0.751279
C          -0.869026       -1.636913       -0.340053
H           0.351050       -0.078053        0.737141
H          -0.995392       -0.796503        0.687579
H          -0.176132        1.386566       -0.283224
C           1.248722       -0.892738        0.008183
H           0.463402       -1.255125        0.325107
C           2.096649        0.467678       -0.431243
H           0.302651       -1.852992       -0.240391
C          -1.339128        0.794030        0.035293
H          -0.009750        1.082456        1.448709
C           0.094461        1.305887       -0.364300
H          -2.827267        0.654767       -1.383085
H           0.487155        1.009593        0.182675
16
reaction_000_gen_9_frame_0028
H          -0.507834       -1.346999       -1.122187
C          -0.323952       -0.600462        1.738364
H           1.916283        1.115508       -1.238413
C          -1.166481       -1.005420       -0.074582
H           0.416809        0.008092        0.777558
H          -0.830579       -1.221652        0.352513
H          -0.192083        1.554416        0.045991
C           1.041957       -0.993992        0.513589
H           0.504479       -1.325067        0.101586
C           2.033922        0.385866       -0.115123
H           0.377724       -1.834825        0.063472
C          -1.328721        0.761087        0.254452
H          -0.111223        0.983691        1.049593
C           0.336481        1.325028       -0.718989
H          -2.779787        0.828789       -1.411012
H           0.613007        1.365942       -0.216812
16
reaction_000_gen_9_frame_0029
H          -0.662445       -1.503321       -1.249700
C          -0.643741       -1.008058        1.615040
H           1.925318        0.685708       -1.384517
C          -1.499227       -0.698792       -0.046601
H           0.259648        0.188896        0.772135
H          -0.584312       -1.301659        0.498545
H          -0.321268        1.655114       -0.047724
C           0.887608       -0.715846        0.157549
H           0.530024       -0.933210        0.969260
C           1.942492        0.146808       -0.033459
H           0.893790       -1.666003       -0.026105
C          -1.116297        0.756094        0.556558
H          -0.355235        0.613771        0.578087
C           0.685069        1.651453       -0.668745
H          -2.835183        0.776103       -1.074779
H           0.893761        1.352943       -0.615547
16
reaction_000_gen_9_frame_0030
H          -0.597541       -1.712642       -0.913689
C          -0.715478       -1.122993        1.224197
H           1.688435        0.865569       -1.164601
C          -1.456208       -0.125926       -0.311047
H           0.072139        0.114725        0.415713
H          -0.487210       -0.852577        1.224602
H          -0.440941        1.534844       -0.137633
C           0.892525       -0.517219        0.373921
H           0.750801       -0.713332        0.907698
C           1.519048        0.271711       -0.369946
H           1.100855       -1.746553        0.044100
C          -0.604102        0.441502        0.407327
H          -0.205990        0.502292        0.865705
C           0.511186        1.844095       -0.773594
H          -3.000479        0.480336       -0.739269
H           0.972960        0.736170       -1.053483
16
reaction_000_gen_9_frame_0031
H          -1.134922       -1.568979       -0.708279
C          -0.802239       -1.555650        1.056831
H           1.640110        1.028440       -1.309116
C          -1.425334       -0.001616        0.129079
H           0.462736        0.376536        0.817585
H          -0.622561       -0.678608        1.241828
H          -0.598686        1.744275       -0.137674
C           1.212082       -0.175547        0.121918
H           0.896946       -0.758968        0.893087
C           1.762581        0.079635       -0.336857
H           1.217430       -1.924086       -0.290581
C          -0.777798        0.056504        0.365391
H          -0.013364        0.406160        0.469547
C           0.330141        2.027263       -0.621284
H          -3.136314        0.419284       -0.789524
H           0.989191        0.525357       -0.901953
16
reaction_000_gen_9_frame_0032
H          -1.147173       -1.532594       -0.580013
C          -0.744871       -1.637306        0.998769
H           1.874795        1.342603       -1.296792
C          -1.641629       -0.500588       -0.093246
H           0.516519        0.783335        1.231810
H          -0.583054       -1.080655        0.964106
H          -0.659803        1.933321       -0.083995
C           1.121482       -0.303276        0.016616
H           1.188264       -0.617086        0.976542
C           1.450723        0.101171       -0.546741
H           1.304414       -2.003453       -0.426078
C          -0.738554       -0.063891        0.350377
H          -0.136911        0.843069        0.476202
C           0.514188        2.444776       -0.643261
H          -3.057736        0.079236       -0.709503
H           0.739347        0.211336       -0.634793
16
reaction_000_gen_9_frame_0033
H          -1.149581       -1.786627       -0.803938
C          -0.627964       -1.242639        0.712185
H           1.910090        1.257596       -1.198980
C          -1.600145       -0.413285        0.027029
H           0.779197        0.734199        1.716791
H          -0.672347       -1.066988        1.017299
H          -0.588207        1.771331       -0.336012
C           0.939123       -0.433406        0.135307
H           0.851052       -0.471240        1.204299
C           1.450741        0.189131       -0.597100
H           1.428283       -1.999128       -0.387920
C          -0.988808       -0.191953        0.377092
H           0.154813        1.041962        0.283547
C           0.729291        2.327095       -0.727440
H          -3.270464        0.170955       -0.740699
H           0.654925        0.112998       -0.681462
16
reaction_000_gen_9_frame_0034
H          -1.001284       -1.976190       -0.896063
C          -0.478774       -1.407370        1.176481
H           1.526613        1.217685       -1.102616
C          -1.769632       -0.507567       -0.152090
H           1.142887        0.927005        1.598771
H          -0.441923       -0.817985        0.707061
H          -0.554569        1.579468       -0.172463
C           0.781563       -0.230351       -0.171193
H           1.027105       -0.693648        1.455056
C           1.189554        0.117630       -1.159258
H           1.161778       -1.761335       -0.262504
C          -1.326083       -0.268783        0.473418
H           0.171045        1.053306        0.169385
C           0.773822        2.417015       -0.582972
H          -2.916904        0.183923       -0.587121
H           0.714802        0.167198       -0.493891
16
reaction_000_gen_9_frame_0035
H          -1.445019       -1.932388       -0.998356
C          -0.572994       -1.436861        1.087686
H           1.335161        1.423695       -0.963588
C          -1.863986       -0.813413        0.119914
H           0.816955        1.189506        1.411583
H          -0.340185       -0.990725        1.316828
H          -0.351952        1.850741       -0.650212
C           1.051180       -0.408466       -0.138254
H           1.004689       -1.189325        1.225062
C           1.246790        0.175376       -0.964334
H           1.083044       -1.101956       -0.433158
C          -1.174348       -0.651166        0.440787
H           0.433501        1.048164        0.103239
C           1.188452        2.365038       -0.770120
H          -3.010034        0.338065       -0.464356
H           0.598746        0.133717       -0.322720
16
reaction_000_gen_9_frame_0036
H          -1.227166       -1.778777       -0.835003
C          -0.326049       -1.693974        1.307223
H           1.022578        1.018964       -1.439392
C          -1.913549       -0.665515        0.065260
H           1.043017        1.037995        1.212288
H          -0.165205       -1.154310        1.011578
H          -0.435037        1.961784       -0.556737
C           0.914106       -0.508240        0.175107
H           1.169642       -1.286974        1.384017
C           1.075326        0.267523       -0.900995
H           1.032491       -1.208416       -0.344569
C          -1.187086       -0.248662        0.763404
H           0.046766        1.122044       -0.094109
C           1.375093        2.384910       -0.436677
H          -3.007657        0.321759       -0.591544
H           0.582731        0.429889       -0.719850
16
reaction_000_gen_9_frame_0037
H          -0.990261       -1.447264       -0.858485
C          -0.501372       -1.869723        1.432055
H           1.214684        0.830761       -1.034075
C          -1.561081       -1.024459       -0.011046
H           0.897894        0.942858        1.239906
H          -0.665080       -1.328025        0.879760
H          -0.565954        2.378193       -0.457144
C           0.999119       -0.352252       -0.055510
H           0.812385       -1.099583        1.095437
C           0.502374        0.599642       -0.998784
H           1.656158       -0.925974       -0.154770
C          -1.039621        0.003105        0.692301
H          -0.179006        1.041781       -0.147730
C           1.411225        2.257566       -0.544854
H          -2.758097        0.233951       -0.314343
H           0.766633       -0.240577       -0.762717
16
reaction_000_gen_9_frame_0038
H          -1.368270       -1.358619       -0.635807
C          -0.399993       -1.839716        1.247006
H           1.210701        0.843792       -0.959492
C          -1.302411       -0.983418       -0.083878
H           0.715925        0.831627        1.421967
H          -0.504591       -1.111228        0.772533
H          -0.490592        2.268078       -0.480835
C           1.279941       -0.711278        0.449226
H           0.995930       -0.850453        0.867638
C           0.655761        0.461092       -1.116250
H           1.783552       -1.030046       -0.187764
C          -1.054894        0.130906        0.418777
H          -0.571281        0.957533        0.001004
C           1.213120        2.136047       -0.475767
H          -2.824806        0.354459       -0.154391
H           0.661908       -0.098775       -1.083965
16
reaction_000_gen_9_frame_0039
H          -1.479584       -1.692578       -0.437446
C          -0.315063       -1.676463        1.036621
H           0.989155        0.619607       -1.555230
C          -1.057407       -0.754727       -0.106212
H           0.477631        1.230004        1.331170
H           0.076984       -0.928719        0.603653
H          -0.068077        1.980119       -0.498111
C           1.344103       -1.051849        0.653341
H           1.064217       -1.066101        0.733473
C           0.386879        0.670232       -0.931203
H           1.609643       -0.657773        0.136972
C          -1.038178        0.193627        0.618337
H          -1.045705        0.750927       -0.008487
C           1.180815        2.009019       -0.226841
H          -2.640289        0.222939       -0.242936
H           0.514877        0.151734       -1.107099
16
reaction_000_gen_9_frame_0040
H          -1.611990       -1.694270       -0.481013
C          -0.317116       -1.459067        0.975463
H           1.091768        0.582497       -1.704250
C          -1.079620       -0.863230        0.040142
H           0.319348        1.432815        1.344815
H           0.165853       -0.739976        0.678593
H           0.155110        1.842712       -0.494676
C           1.350684       -1.042364        0.665422
H           0.782418       -1.353810        0.823056
C           0.377493        0.381649       -0.764798
H           1.652390       -0.650447        0.211791
C          -1.410342        0.557111        0.904903
H          -0.876520        0.686960        0.101572
C           1.023289        1.900702       -0.438187
H          -2.341678        0.193908       -0.645188
H           0.718914        0.224809       -1.217646
16
reaction_000_gen_9_frame_0041
H          -1.669280       -1.788980       -0.473763
C          -0.498829       -1.546389        0.758959
H           0.767002        0.461081       -1.608169
C          -0.772367       -0.732807        0.122986
H           0.646753        1.448683        1.360023
H           0.343883       -0.739291        0.982477
H           0.037189        1.740981       -0.563410
C           1.501961       -0.905700        0.901667
H           0.698403       -1.131892        0.660586
C           0.221303        0.213436       -0.933131
H           1.314539       -0.467642       -0.060220
C          -1.465040        0.658054        0.928911
H          -0.651078        0.788109        0.017066
C           0.977998        1.840257       -0.664103
H          -2.002048        0.095016       -0.383753
H           0.549611        0.067085       -1.046125
16
reaction_000_gen_9_frame_0042
H          -1.404167       -1.684171       -0.455482
C          -0.670874       -1.265524        0.517186
H           1.257776        0.483724       -1.448741
C          -0.809682       -1.039340        0.278329
H           0.545212        1.812614        1.409985
H           0.525214       -0.577774        1.116463
H           0.276279        1.437638       -0.864651
C           1.579123       -0.922240        1.178415
H           0.664515       -1.129761        0.469526
C           0.159145        0.147460       -0.876861
H           1.126631       -0.167624       -0.029782
C          -1.415269        0.501323        1.117989
H          -0.650268        0.317581       -0.120657
C           0.536053        1.955569       -0.835551
H          -2.261395        0.027675       -0.543684
H           0.541706        0.102850       -0.912483
16
reaction_000_gen_9_frame_0043
H          -1.922343       -1.708774       -0.714704
C          -0.248755       -1.360108        0.552842
H           1.074811        0.631882       -1.372868
C          -1.049626       -1.021540        0.730299
H           0.688686        1.328164        1.286232
H           0.761724       -0.362028        1.406342
H           0.349290        1.285817       -0.540120
C           1.550507       -1.199400        1.136953
H           0.494692       -0.936877        0.112002
C           0.031507        0.302831       -0.647560
H           1.281833        0.149686       -0.263890
C          -1.098045        0.198201        1.026923
H          -0.426725        0.622263       -0.435272
C           0.243141        1.967584       -0.994843
H          -2.274030        0.294692       -0.489718
H           0.543334       -0.192393       -0.792620
16
reaction_000_gen_9_frame_0044
H          -1.902444       -1.585463       -0.633913
C          -0.228360       -1.185253        0.663532
H           0.621767        0.774774       -1.424143
C          -0.902384       -1.092588        0.837218
H           0.931378        1.379965        1.133182
H           0.399868       -0.311450        1.240927
H           0.497185        0.943849       -0.546524
C           1.702704       -1.076735        1.242306
H           0.640383       -1.214905        0.231030
C          -0.002967        0.296130       -0.659349
H           1.258755        0.269870       -0.086570
C          -0.852702        0.057994        0.912225
H          -0.604577        0.588024       -0.339295
C          -0.085406        2.351231       -0.915536
H          -2.343195        0.037411       -0.480222
H           0.869995       -0.232855       -1.174867
16
reaction_000_gen_9_frame_0045
H          -2.074517       -2.050330       -0.736407
C           0.024052       -1.133418        0.569617
H           0.889259        0.891697       -1.617909
C          -0.630910       -0.957626        0.841653
H           0.888851        1.890107        1.677698
H           0.431073       -0.660878        1.288165
H           0.258188        0.904115       -0.569490
C           1.499723       -1.087391        1.464825
H           0.269690       -1.493089       -0.098166
C           0.635284        0.322584       -0.694107
H           1.245361        0.270654        0.000119
C          -0.902935        0.308946        0.537634
H          -0.835469        0.596214       -0.591958
C          -0.312237        2.553750       -0.759451
H          -2.318645       -0.055022       -0.000882
H           0.933231       -0.300313       -1.311340
16
reaction_000_gen_9_frame_0046
H          -1.911317       -1.946895       -1.046135
C           0.005756       -1.272770        0.663058
H           0.880832        0.877999       -1.984071
C          -0.179532       -0.876496        0.996220
H           0.771968        1.785226        1.578509
H           0.221241       -0.654642        1.345986
H          -0.000084        0.974762       -0.528903
C           1.332830       -0.501625        1.472852
H           0.192368       -1.376105       -0.279560
C           0.629388        0.509755       -0.829481
H           1.152351        0.234300       -0.177309
C          -0.604789        0.217261        0.621025
H          -0.835378        0.216323       -0.433262
C          -0.344054        2.607223       -0.614552
H          -2.342386       -0.178798        0.291496
H           1.030807       -0.615517       -1.075873
16
reaction_000_gen_9_frame_0047
H          -1.814325       -1.929780       -0.835217
C          -0.269035       -1.370869        0.397197
H           0.698682        0.891654       -2.075950
C          -0.152179       -0.927285        0.684893
H           0.797195        2.033135        1.450696
H           0.041162       -0.763814        1.433667
H          -0.067873        0.813359       -0.505558
C           1.286191       -0.414867        1.814628
H           0.301731       -1.614119       -0.382228
C           0.727665        0.691756       -0.671859
H           1.227149        0.197811        0.044754
C          -0.417923        0.143721        0.269028
H          -0.795610       -0.043475       -0.249572
C           0.029958        2.504577       -1.065005
H          -2.420381        0.099831        0.330871
H           0.827593       -0.311636       -0.640345
16
reaction_000_gen_9_frame_0048
H          -1.572184       -1.928702       -0.952821
C           0.035226       -1.068105        0.229558
H           0.434907        0.765976       -1.488466
C          -0.129700       -0.533495        0.541350
H           0.778911        1.968828        1.454939
H          -0.235168       -0.759967        1.188108
H           0.165160        1.085221       -0.680757
C           1.463858       -0.622046        1.645965
H           0.157410       -1.942069       -0.221485
C           0.228342        0.204885       -0.714013
H           1.453406        0.331323        0.205674
C          -0.431091        0.495600        0.548009
H          -1.136009       -0.124160       -0.727166
C           0.340906        2.346143       -0.803077
H          -2.300074        0.154881        0.402954
H           0.746099       -0.374313       -0.628770
16
reaction_000_gen_9_frame_0049
H          -1.797442       -2.279951       -1.166609
C           0.065177       -1.209708        0.199039
H           0.295191        0.682056       -1.324023
C           0.084946       -0.477626        0.475199
H           0.707681        2.203416        1.038551
H          -0.449886       -0.995563        1.180359
H           0.305529        0.947012       -0.921979
C           1.625997       -0.547514        2.035357
H           0.242396       -1.725382        0.042771
C           0.225152        0.188831       -0.748080
H           1.566389       -0.095258        0.531028
C          -0.322113        0.761539        0.589931
H          -1.149403       -0.114253       -0.561868
C           0.130064        2.482126       -0.798895
H          -2.280941        0.425201        0.453892
H           0.751264       -0.244926       -1.024674
16
reaction_000_gen_9_frame_0050
H          -1.796963       -2.691763       -1.531278
C           0.016083       -1.212508        0.223090
H           0.054600        1.009670       -0.945226
C           0.070154       -0.509372        0.399609
H           0.552844        2.568272        1.195352
H          -0.306079       -0.911495        1.236371
H           0.498369        0.831650       -1.059878
C           1.480847       -0.303004        1.820785
H           0.317146       -2.029648       -0.120516
C           0.090742        0.155379       -0.638847
H           1.493111       -0.024621        0.592226
C          -0.202406        0.522386        0.554675
H          -1.198057        0.089954       -0.547752
C           0.444492        2.446896       -0.709624
H          -1.929560        0.408983        0.535286
H           0.414675       -0.350780       -1.004275
16
reaction_000_gen_9_frame_0051
H          -1.752739       -3.005889       -1.559341
C           0.085550       -1.411208        0.272490
H          -0.092838        1.380030       -1.068953
C           0.136557       -0.567876        0.577317
H           0.409192        2.109258        1.225405
H          -0.491067       -0.793580        1.289282
H           0.682891        1.181913       -0.960829
C           1.374970       -0.224767        2.056932
H           0.254405       -2.363332       -0.279650
C           0.046591        0.216897       -0.940648
H           1.452029       -0.052544        0.457882
C          -0.319037        0.631148        0.313787
H          -0.971323        0.235407       -0.410931
C           0.347876        2.578959       -0.830833
H          -1.851767        0.469902        0.811518
H           0.688710       -0.384320       -0.953427
16
reaction_000_gen_9_frame_0052
H          -1.876945       -3.416859       -1.353945
C           0.520634       -1.332937        0.168670
H           0.366645        1.272289       -1.197061
C           0.229369       -0.648348        0.467776
H           0.019630        2.112141        1.244746
H          -0.274185       -0.608864        1.330050
H           0.403399        1.358880       -1.118415
C           1.060021        0.082660        1.494554
H          -0.067310       -2.256441       -0.046715
C           0.036026        0.404237       -0.631842
H           1.064339       -0.000722        0.476797
C          -0.044283        0.511390        0.675409
H          -0.838373        0.241826       -0.307911
C           0.110504        2.402972       -0.722252
H          -1.434713        0.139262        0.683526
H           0.725242       -0.261486       -1.163386
16
reaction_000_gen_9_frame_0053
H          -2.076879       -3.610083       -1.151960
C           0.660916       -1.424222        0.157219
H           0.403128        1.439905       -0.844086
C           0.012848       -0.238895        0.308596
H           0.122465        1.967021        1.138609
H          -0.315679       -0.822250        1.185355
H           0.442154        1.454168       -0.878345
C           1.236708        0.174706        1.045021
H          -0.211663       -2.352449       -0.023609
C           0.233786        0.330457       -0.594821
H           0.902962        0.110337        0.556870
C          -0.448345        0.415335        0.745903
H          -0.533679        0.218556       -0.311260
C           0.045073        2.503131       -0.938120
H          -1.280808        0.173224        0.910663
H           0.807011       -0.338941       -1.306038
16
reaction_000_gen_9_frame_0054
H          -2.073621       -3.535359       -0.948914
C           0.601258       -1.385555        0.128789
H           0.360890        1.513978       -1.066136
C           0.029678       -0.331335        0.289034
H           0.016725        1.761828        1.269547
H          -0.840513       -0.217352        1.124593
H           0.583897        1.678381       -0.628924
C           1.516081        0.085059        0.788887
H          -0.324510       -2.206778       -0.344448
C           0.145037        0.329571       -0.387627
H           0.967730        0.086544        0.507444
C          -0.221685        0.055589        0.608024
H          -0.232735        0.435098       -0.492077
C           0.102080        2.310709       -0.997929
H          -1.458042        0.158031        1.094828
H           0.827730       -0.738409       -0.945091
16
reaction_000_gen_9_frame_0055
H          -1.764410       -3.673966       -1.191088
C           0.594208       -1.419003        0.145493
H           0.516864        1.396889       -0.706414
C          -0.020017        0.169561        0.365275
H           0.268744        1.802449        0.956784
H          -0.975219       -0.292857        1.304051
H           0.645176        1.445004       -0.788363
C           1.505022       -0.129397        0.819330
H          -0.422967       -2.000889       -0.429427
C          -0.269950        0.516964       -0.195750
H           0.844220       -0.093866        0.242883
C          -0.382494        0.209160        0.566464
H          -0.157719        0.448169       -0.041425
C           0.228468        2.258105       -0.881832
H          -1.239874        0.107585        1.060203
H           0.629948       -0.743908       -1.226183
16
reaction_000_gen_9_frame_0056
H          -1.108959       -3.674591       -1.016343
C           0.687322       -1.391660        0.027135
H           0.494575        1.329256       -0.425238
C           0.079098        0.248886        0.524475
H           0.114066        1.504522        0.736725
H          -0.712713        0.068124        1.436052
H           0.593581        1.173166       -0.759008
C           1.535115       -0.018763        0.606676
H          -0.734897       -2.096788       -0.405747
C          -0.036462        0.696903       -0.365589
H           0.617598        0.114037        0.178415
C          -0.763273        0.025389        0.418229
H          -0.478776        0.707587       -0.133896
C           0.170231        2.127613       -0.478948
H          -1.058926       -0.057994        0.882937
H           0.602418       -0.755688       -1.225873
16
reaction_000_gen_9_frame_0057
H          -0.918015       -3.419541       -0.715168
C           0.561239       -1.364344       -0.107242
H           0.750663        1.413467       -0.594975
C          -0.154187        0.395907        0.176603
H           0.048045        1.303875        0.873753
H          -0.621497       -0.426018        1.416190
H           0.399535        1.436975       -0.809259
C           1.538907        0.082519        0.750731
H          -0.555396       -1.972311       -0.299432
C           0.101993        0.738570       -0.287729
H           0.413764        0.391076        0.481984
C          -0.933247       -0.031705        0.645743
H          -0.439665        0.450207       -0.352322
C           0.006985        2.153938       -0.700896
H          -1.037307       -0.237813        0.822713
H           0.838183       -0.914801       -1.300692
16
reaction_000_gen_9_frame_0058
H          -0.847099       -3.153952       -0.492991
C           0.367916       -1.514359       -0.186546
H           0.775938        1.241586       -0.535400
C          -0.359630        0.336277        0.021214
H           0.122092        1.493623        1.002170
H          -0.546195       -0.345294        1.560732
H           0.307983        1.129364       -0.704376
C           1.111804       -0.103525        0.680889
H          -0.424940       -1.644377       -0.390698
C           0.132760        0.566197       -0.579088
H           0.498697        0.371599        0.128969
C          -0.688942        0.227807        0.565368
H          -0.237436        0.261370       -0.152454
C           0.203016        2.214720       -0.504424
H          -0.919683       -0.245191        0.878177
H           0.503721       -0.835844       -1.291543
16
reaction_000_gen_9_frame_0059
H          -1.014608       -2.993591       -0.420760
C           0.579137       -1.343527       -0.303532
H           0.611009        1.385127       -0.817225
C          -0.212128        0.264767        0.191356
H           0.144720        1.386382        1.025444
H          -0.740075       -0.469860        1.922822
H           0.260820        0.968376       -0.540702
C           1.092360       -0.231652        0.693670
H          -0.296472       -1.542626       -0.437635
C           0.253424        0.749114       -0.658206
H           0.177391        0.216841        0.041157
C          -0.890778        0.341904        0.493668
H           0.017274        0.278616       -0.041993
C           0.333843        2.122739       -0.641740
H          -0.715928       -0.303270        0.870310
H           0.400011       -0.829340       -1.376635
16
reaction_000_gen_9_frame_0060
H          -1.347895       -3.036335       -0.242339
C           0.462831       -1.631904       -0.301591
H           0.747600        1.445232       -0.626412
C          -0.362936        0.235949       -0.002375
H           0.041544        1.357522        0.840918
H          -0.635666       -0.193060        1.859485
H           0.463375        0.848592       -0.611728
C           1.193566       -0.141685        0.800620
H          -0.329757       -1.329342       -0.284267
C           0.226206        0.808018       -0.631963
H           0.316230        0.211024        0.072136
C          -0.671186        0.245099        0.295893
H           0.007210        0.122983       -0.245518
C           0.188865        2.222638       -0.651364
H          -0.640231       -0.050915        1.025932
H           0.340245       -1.113816       -1.297428
16
reaction_000_gen_9_frame_0061
H          -1.002308       -2.740590       -0.662028
C           0.385107       -1.688123       -0.187578
H           0.671913        1.172909       -0.571037
C          -0.237834        0.289738       -0.091923
H           0.306910        1.793242        1.022642
H          -1.069758       -0.114895        1.875116
H           0.569718        0.753243       -0.462785
C           1.359226       -0.351853        0.580380
H          -0.530859       -1.606128       -0.312200
C           0.089126        0.918384       -0.820738
H           0.456630       -0.005314        0.174440
C          -0.939134        0.464308        0.456798
H           0.031780        0.218562       -0.151149
C           0.152010        2.057050       -0.664805
H          -0.580416       -0.042608        0.931451
H           0.337891       -1.117924       -1.116583
16
reaction_000_gen_9_frame_0062
H          -0.643972       -2.546936       -1.096703
C           0.412266       -1.641153       -0.174070
H           0.544303        1.216942       -0.462850
C          -0.164537       -0.003997       -0.019243
H           0.034554        1.828838        0.867543
H          -1.188867       -0.007940        1.921574
H           0.360833        0.819614       -0.258918
C           1.295024        0.032721        0.798978
H          -0.463731       -1.869136       -0.311891
C          -0.076227        0.782706       -0.869108
H           0.454339        0.023397        0.245827
C          -0.963328        0.529753        0.265883
H           0.188909       -0.131074       -0.144079
C           0.395812        2.200743       -0.546342
H          -0.544805       -0.207076        0.658644
H           0.359428       -1.027403       -0.875245
16
reaction_000_gen_9_frame_0063
H          -0.604768       -2.383289       -1.317708
C           0.103097       -1.599545        0.165860
H           0.245002        1.187725       -0.420287
C           0.214691        0.256411       -0.110342
H           0.258717        2.050460        0.686765
H          -0.887861       -0.293211        2.002642
H           0.453233        0.768786       -0.301136
C           1.102229        0.106083        0.812890
H          -0.625777       -1.781270       -0.628090
C           0.133783        0.730219       -0.680679
H           0.736168        0.001191        0.176904
C          -1.070191        0.281365        0.185422
H          -0.060921       -0.121105       -0.080422
C           0.334965        2.026466       -0.206313
H          -0.459143       -0.227236        0.584639
H           0.126773       -1.003049       -0.870146
16
reaction_000_gen_9_frame_0064
H          -0.474165       -2.422114       -1.356418
C           0.013159       -1.716779        0.348992
H           0.148406        1.162352       -0.466556
C           0.170683        0.418435       -0.189732
H           0.413793        2.182928        0.697108
H          -0.806865       -0.384812        2.042954
H           0.387248        0.633078       -0.209835
C           0.782226        0.221591        0.645445
H          -0.638832       -1.870206       -0.775996
C          -0.019396        0.737977       -0.410707
H           0.605268       -0.005185        0.051887
C          -1.101791        0.101300        0.067757
H           0.119215       -0.051135       -0.005713
C           0.595360        2.132313       -0.172234
H          -0.514949       -0.320473        0.464513
H           0.320640       -0.819270       -0.731465
16
reaction_000_gen_9_frame_0065
H          -0.660968       -2.844571       -1.089206
C          -0.018675       -1.475740        0.427016
H           0.397994        0.836594       -0.459032
C          -0.012751        0.301722       -0.379038
H           0.205600        2.259158        0.535756
H          -0.795005       -0.100524        1.907161
H           0.448260        0.590809       -0.648454
C           0.769380        0.095148        0.786926
H          -0.607768       -1.840275       -0.723240
C           0.079628        0.848808       -0.528773
H           0.700141       -0.082710        0.265998
C          -1.323206       -0.136853       -0.092973
H           0.389256        0.055258        0.093893
C           0.686482        2.048640       -0.036189
H          -0.633896       -0.091853        0.471364
H           0.375527       -0.463611       -0.531211
16
reaction_000_gen_9_frame_0066
H          -0.607159       -2.717200       -1.172198
C          -0.207478       -1.508981        0.253226
H           0.451862        0.794032       -0.288552
C           0.221744        0.169512       -0.399602
H           0.321166        2.091015        0.589287
H          -0.709287        0.073854        1.779073
H           0.353660        0.507820       -0.512605
C           0.579342       -0.103022        0.929368
H          -0.692215       -1.635395       -0.908150
C          -0.027062        0.847544       -0.650903
H           0.513711       -0.067483        0.241101
C          -1.469599       -0.081689       -0.021693
H           0.153307        0.000366       -0.057078
C           0.860522        2.118676        0.247354
H          -0.372884       -0.090771        0.488665
H           0.630372       -0.398279       -0.517294
16
reaction_000_gen_9_frame_0067
H          -0.524527       -2.908248       -1.129432
C           0.012379       -1.593660        0.233724
H           0.472089        0.613801       -0.326117
C           0.038509        0.202437       -0.340306
H           0.217304        2.011308        0.583766
H          -0.368469        0.424443        1.565981
H           0.390624        0.410447       -0.513647
C           0.624938       -0.010912        1.106969
H          -0.692305       -1.767168       -1.157313
C          -0.092389        0.897748       -0.423972
H           0.424495       -0.223324        0.452960
C          -1.472540        0.162055       -0.014275
H          -0.208466        0.354812       -0.060406
C           0.891532        2.065154        0.193894
H          -0.436566       -0.107540        0.309037
H           0.723393       -0.531355       -0.480863
16
reaction_000_gen_9_frame_0068
H          -0.555156       -2.915465       -1.017186
C           0.003838       -1.823508        0.313837
H           0.587683        0.922597       -0.504183
C           0.244693        0.162627       -0.463700
H          -0.035266        1.980935        0.642649
H           0.185701        0.627368        1.604542
H           0.552871        0.614958       -0.804956
C           0.589337       -0.032310        1.019673
H          -0.852751       -1.683068       -1.176769
C           0.140528        0.757392       -0.624111
H           0.199330       -0.032981        0.575149
C          -1.785640       -0.077911        0.264194
H          -0.135897        0.116365       -0.017171
C           0.652216        1.934339        0.078096
H          -0.521625        0.125320        0.443462
H           0.730139       -0.676660       -0.333526
16
reaction_000_gen_9_frame_0069
H          -0.442876       -3.025019       -0.858879
C          -0.382491       -1.773337        0.308653
H           0.863610        0.743347       -0.655941
C           0.241597        0.143169       -0.466634
H           0.004425        2.052689        0.440460
H           0.310188        0.879996        1.536822
H           0.551278        0.705088       -0.776484
C           0.564406        0.071201        1.006225
H          -0.946848       -1.354013       -0.923366
C           0.001738        0.814200       -0.341435
H           0.165367       -0.220126        0.426410
C          -1.682462        0.033052        0.178232
H           0.028012        0.185040        0.204544
C           0.830587        1.756892       -0.225645
H          -0.591269        0.133548        0.626311
H           0.484739       -1.145726       -0.479275
16
reaction_000_gen_9_frame_0070
H          -0.269623       -2.733735       -0.717811
C          -0.491962       -1.789828        0.185308
H           0.956087        0.555206       -0.860867
C          -0.030827        0.111620       -0.454871
H           0.097471        1.995314        0.648025
H           0.261974        0.875497        1.433108
H           0.410435        0.757000       -0.936819
C           0.562593       -0.104157        0.854484
H          -1.023001       -1.535364       -0.971656
C           0.147791        0.757957       -0.484450
H           0.184472       -0.299256        0.362893
C          -1.245596        0.140335        0.477488
H          -0.003070        0.214408        0.088137
C           0.686835        1.978889       -0.352845
H          -0.485519        0.164080        0.788860
H           0.241939       -1.087966       -0.058981
16
reaction_000_gen_9_frame_0071
H          -0.231818       -2.605213       -0.641360
C          -0.615608       -1.659263        0.087713
H           0.903388        0.356731       -0.782581
C           0.179713        0.418262       -0.345510
H           0.112971        2.027821        0.727162
H           0.248039        0.573363        1.335003
H           0.600568        0.649461       -0.563812
C           0.478303        0.096111        0.954832
H          -0.841712       -1.621544       -1.314783
C          -0.037869        0.471314       -0.629588
H           0.319440       -0.266904        0.302784
C          -1.152459        0.262259        0.388117
H          -0.276134        0.228691       -0.123448
C           0.563659        2.064990       -0.548107
H          -0.466802        0.118396        0.913549
H           0.216319       -1.114474        0.240029
16
reaction_000_gen_9_frame_0072
H          -0.374941       -2.454461       -0.706328
C          -0.377382       -1.630531        0.010282
H           0.774398        0.567059       -0.705358
C           0.215421        0.447933       -0.225978
H          -0.059483        2.269312        0.687077
H           0.156082        0.472599        1.316480
H           0.634601        0.828316       -0.585176
C           0.641589        0.017895        0.818987
H          -0.730200       -1.620362       -1.386157
C          -0.137944        0.252935       -0.456967
H           0.240321       -0.267439        0.276703
C          -1.185425        0.232725        0.338356
H          -0.291983        0.001204        0.086949
C           0.564869        2.101689       -0.492819
H          -0.570061       -0.058996        0.716853
H           0.500139       -1.159877        0.307097
16
reaction_000_gen_9_frame_0073
H          -0.410270       -2.443841       -0.768012
C          -0.389381       -1.710526       -0.208183
H           0.899394        0.727532       -0.502262
C           0.125132        0.378483       -0.331254
H          -0.279051        2.087656        0.813908
H           0.136704        0.341373        1.209412
H           0.839072        0.975471       -0.640709
C           0.477968        0.106160        0.881841
H          -0.539381       -1.466517       -1.369418
C          -0.189127        0.144299       -0.189626
H           0.323272       -0.185828        0.408906
C          -1.340542        0.233403        0.297630
H          -0.563736       -0.027495        0.129265
C           0.703753        2.046129       -0.554793
H          -0.333777       -0.006108        0.778051
H           0.539969       -1.200189        0.045244
16
reaction_000_gen_9_frame_0074
H          -0.389347       -2.650679       -0.988642
C          -0.591228       -1.782314       -0.105183
H           0.688106        0.877532       -0.452524
C           0.243599        0.657662       -0.075160
H          -0.308245        1.954448        0.816262
H           0.218705        0.694143        0.909563
H           0.751385        1.115349       -0.472172
C           0.588299        0.305393        0.774210
H          -0.681662       -1.358595       -1.278583
C          -0.068353        0.073863       -0.208976
H           0.526553       -0.145630        0.450399
C          -1.268507        0.271740        0.430349
H          -0.580212       -0.263795        0.111547
C           0.930794        2.120682       -0.553716
H          -0.373582       -0.153958        0.715824
H           0.313696       -1.715842       -0.073198
16
reaction_000_gen_9_frame_0075
H          -0.512261       -2.661206       -1.182389
C          -0.549911       -1.672346       -0.267285
H           0.638959        0.918931       -0.439168
C           0.368753        0.602901       -0.425541
H          -0.056788        2.068905        0.917758
H           0.104705        0.748820        1.030248
H           0.843514        1.070473       -0.407004
C           0.491749        0.265008        0.861594
H          -0.811994       -0.979930       -1.122568
C          -0.002935       -0.014096       -0.088468
H           0.456032       -0.180824        0.504853
C          -1.513691        0.205141        0.532762
H          -0.620571       -0.460668        0.169313
C           1.116472        1.815475       -0.580351
H          -0.264119       -0.107994        0.428368
H           0.312084       -1.618589        0.067877
16
reaction_000_gen_9_frame_0076
H          -0.714961       -2.539219       -1.332911
C          -0.590923       -1.401585       -0.382376
H           0.634699        0.869321        0.016194
C           0.594595        0.614848       -0.477588
H          -0.034406        1.956334        1.052014
H           0.255777        0.681839        1.013505
H           1.075148        0.615376       -0.271595
C           0.431407        0.330781        0.693461
H          -0.688133       -0.961268       -0.838488
C          -0.129829       -0.034693       -0.090381
H           0.408719       -0.481592        0.465496
C          -1.446606        0.277345        0.417027
H          -0.551696       -0.283024        0.024980
C           0.843997        1.856237       -0.665795
H          -0.457339        0.179981        0.300049
H           0.369552       -1.680680        0.076410
16
reaction_000_gen_9_frame_0077
H          -0.700617       -2.559478       -1.246179
C          -0.570015       -1.384843       -0.374423
H           0.730616        0.565479       -0.043035
C           0.580533        0.653748       -0.589465
H           0.141109        2.146646        1.014549
H           0.248288        0.404767        0.958904
H           0.957841        0.597566       -0.318194
C           0.910628        0.470073        0.818051
H          -0.780365       -0.965713       -1.002394
C          -0.148643       -0.010677       -0.204363
H           0.147736       -0.580231        0.451176
C          -1.600481        0.213463        0.446578
H          -0.671684       -0.203551        0.093076
C           0.843140        1.905755       -0.484424
H          -0.655484        0.210037        0.280451
H           0.567397       -1.463039        0.199694
16
reaction_000_gen_9_frame_0078
H          -0.561351       -2.449542       -0.892602
C          -0.583208       -1.603766       -0.288733
H           0.479178        0.732515       -0.182333
C           0.588055        0.600768       -0.704672
H           0.059005        2.088413        1.004377
H           0.086288        0.413477        1.010734
H           0.872541        0.617032       -0.074013
C           0.988569        0.538801        0.807125
H          -0.422361       -0.911984       -1.087297
C          -0.286861        0.232846       -0.020981
H           0.199565       -0.527879        0.258509
C          -1.608199        0.274506        0.332400
H          -0.636615       -0.092529       -0.015369
C           1.016167        1.669871       -0.733749
H          -0.837551        0.104250        0.346369
H           0.646776       -1.686779        0.240235
16
reaction_000_gen_9_frame_0079
H          -0.649221       -2.358905       -1.010634
C          -0.492189       -1.685243       -0.402558
H           0.288006        0.599606        0.127268
C           0.739588        0.540620       -0.592577
H           0.422712        2.219034        0.891393
H          -0.019069        0.259254        1.136822
H           0.952497        0.617936        0.139392
C           0.946207        0.433831        0.719259
H          -0.337779       -0.755007       -1.198974
C          -0.574843        0.272728        0.056629
H           0.098463       -0.523003        0.136202
C          -1.514979        0.284510        0.544765
H          -0.638747        0.018390       -0.021425
C           0.915133        1.635890       -0.867656
H          -0.966828        0.175872        0.297460
H           0.831050       -1.735514        0.044633
16
reaction_000_gen_9_frame_0080
H          -0.612611       -2.364640       -0.701262
C          -0.464554       -1.599921       -0.343719
H           0.356334        0.326911        0.340303
C           0.861215        0.469497       -0.561857
H           0.690213        2.272407        0.856036
H          -0.175955        0.129038        1.146809
H           0.878420        0.519835        0.027756
C           1.070405        0.477444        0.600328
H          -0.430695       -0.718998       -1.321000
C          -0.481747        0.619122        0.038315
H          -0.022503       -0.284887       -0.095290
C          -1.426849        0.150323        0.579935
H          -0.623778       -0.120204        0.103269
C           0.895083        1.706733       -1.050696
H          -1.261579        0.033706        0.263257
H           0.748603       -1.616368        0.117815
16
reaction_000_gen_9_frame_0081
H          -0.632330       -2.231191       -0.674009
C          -0.418577       -1.583272       -0.386710
H           0.364902       -0.054234        0.182124
C           0.964524        0.347547       -0.696113
H           0.457738        2.151852        0.718015
H          -0.161956        0.340317        1.218990
H           0.961616        0.615297       -0.069084
C           0.990464        0.581816        0.793655
H          -0.689580       -0.657211       -1.434135
C          -0.421516        0.727565       -0.078700
H           0.030622       -0.306787        0.207844
C          -1.444730       -0.154642        0.793225
H          -0.535626        0.089130        0.107293
C           1.134670        1.779205       -1.041882
H          -1.320143        0.166234        0.146321
H           0.719920       -1.811625        0.213167
16
reaction_000_gen_9_frame_0082
H          -0.384224       -2.296289       -0.673246
C          -0.536925       -1.613450       -0.234193
H           0.176304        0.025894        0.499889
C           0.710164        0.219075       -0.759077
H           0.546150        2.208935        0.697781
H          -0.181261        0.568031        1.088813
H           1.005545        0.666050        0.004481
C           1.065578        0.899594        0.581972
H          -0.788000       -0.730939       -1.500358
C          -0.343103        0.659601       -0.124531
H           0.348270       -0.287491        0.193056
C          -1.324711       -0.270400        0.519917
H          -0.457391        0.026197        0.363384
C           0.860597        1.692507       -1.031935
H          -1.390590       -0.055724        0.320864
H           0.693596       -1.711594        0.053183
16
reaction_000_gen_9_frame_0083
H          -0.003237       -2.531476       -0.676359
C          -0.548462       -1.588782       -0.025214
H           0.075287       -0.134880        0.361912
C           0.655051        0.290417       -0.901535
H           0.826139        2.163108        0.974649
H          -0.301708        0.756905        1.059530
H           0.711616        0.805245        0.040515
C           1.155612        0.638661        0.429840
H          -0.605400       -0.372868       -1.590311
C          -0.431008        0.599248        0.037564
H           0.404704       -0.334142        0.194430
C          -1.166203       -0.043186        0.516593
H          -0.644244       -0.129021        0.277782
C           0.626882        1.695178       -0.966829
H          -1.267656       -0.096854        0.172391
H           0.512627       -1.717553        0.095043
16
reaction_000_gen_9_frame_0084
H           0.019132       -2.311116       -0.669855
C          -0.800303       -1.497556        0.052881
H           0.105743       -0.298282        0.349450
C           0.758320        0.211329       -0.804362
H           0.720708        2.218260        1.152434
H          -0.115439        0.886676        0.942671
H           0.889817        0.846757        0.093719
C           1.078765        0.501566        0.415595
H          -0.536624       -0.372657       -1.639910
C          -0.484358        0.598863       -0.037813
H           0.457027       -0.542816        0.399895
C          -1.165179        0.108235        0.470299
H          -0.569428       -0.213894        0.216356
C           0.585294        1.540563       -0.905407
H          -1.286486        0.147556        0.399844
H           0.343010       -1.823486       -0.435796
16
reaction_000_gen_9_frame_0085
H          -0.032088       -2.455812       -0.645187
C          -0.828348       -1.456362        0.287872
H           0.040241       -0.288892        0.051996
C           0.819010        0.085387       -0.738413
H           0.591800        2.218674        1.095221
H          -0.099019        1.074405        1.103036
H           0.775616        0.787161        0.499464
C           1.109662        0.598993        0.060992
H          -0.509611       -0.536082       -1.586314
C          -0.651109        0.463804       -0.024267
H           0.703571       -0.435027        0.373952
C          -0.880322        0.020498        0.297837
H          -0.691596       -0.289982        0.035586
C           0.689616        1.757486       -0.979606
H          -1.405146        0.219584        0.500286
H           0.367723       -1.763835       -0.332454
16
reaction_000_gen_9_frame_0086
H          -0.274311       -2.502199       -0.840017
C          -0.537955       -1.204518        0.400629
H           0.181361       -0.144187       -0.129966
C           0.962863        0.264469       -0.839691
H           0.427508        2.161093        0.924893
H          -0.088953        1.182126        0.842089
H           0.761554        0.767406        0.660953
C           1.150573        0.625110        0.036818
H          -0.725395       -0.811815       -1.537230
C          -0.735604        0.204851       -0.029770
H           0.789474       -0.354520        0.626357
C          -0.863671       -0.044471        0.463974
H          -0.739352       -0.234220        0.030435
C           0.582620        1.690498       -0.922895
H          -1.324593        0.283172        0.553771
H           0.433882       -1.882795       -0.240351
16
reaction_000_gen_9_frame_0087
H          -0.174541       -2.378597       -0.707214
C          -0.673873       -1.017303        0.455169
H           0.462711       -0.298225       -0.394274
C           1.062613        0.139597       -0.796606
H           0.218743        2.145186        0.894287
H          -0.031575        1.296018        0.755405
H           0.907519        0.808239        0.553880
C           1.267141        0.512586        0.187997
H          -0.552927       -0.816190       -1.682600
C          -0.767348        0.213860        0.115573
H           0.709266       -0.280904        0.302529
C          -0.997590       -0.172414        0.549398
H          -0.883797       -0.046095        0.082546
C           0.280743        1.435173       -0.601512
H          -1.189217        0.314494        0.460093
H           0.362132       -1.855427       -0.174672
16
reaction_000_gen_9_frame_0088
H          -0.206275       -2.300113       -0.750681
C          -0.610213       -1.225510        0.455127
H           0.389987       -0.335965       -0.374360
C           1.106901        0.339220       -0.653529
H           0.383902        1.987614        0.866558
H           0.014321        1.645989        0.900357
H           1.006236        0.690723        0.490724
C           1.051016        0.466333       -0.013546
H          -0.495591       -0.657838       -1.654143
C          -0.960941        0.383023        0.131823
H           0.628447       -0.330488        0.235281
C          -0.840204       -0.261770        0.543718
H          -1.048584       -0.325681        0.012115
C           0.332870        1.396947       -0.485411
H          -1.089594        0.250292        0.578261
H           0.337725       -1.722776       -0.282295
16
reaction_000_gen_9_frame_0089
H          -0.412920       -2.202275       -0.962914
C          -0.704864       -1.417222        0.264490
H           0.414004       -0.233120       -0.159393
C           1.133408        0.031384       -0.350743
H           0.507415        1.936667        0.877478
H           0.084741        1.737760        1.110426
H           1.263216        0.573578        0.465657
C           1.340579        0.349650        0.159201
H          -0.542971       -0.832842       -1.833883
C          -1.067426        0.484548       -0.209776
H           0.375670       -0.264681        0.146347
C          -0.984289       -0.220055        0.845757
H          -1.015994       -0.169347        0.080811
C           0.231625        1.512828       -0.363546
H          -0.872381        0.269408        0.532862
H           0.250186       -1.556281       -0.602774
16
reaction_000_gen_9_frame_0090
H          -0.482504       -2.257511       -0.876518
C          -0.774522       -1.604551        0.338432
H           0.305894       -0.362634       -0.245464
C           1.232894        0.202813       -0.337756
H           0.580401        2.071738        1.080192
H           0.197959        1.696463        0.978012
H           1.281531        0.548259        0.441139
C           1.274890        0.226946        0.074129
H          -0.460953       -0.747330       -1.648771
C          -0.951564        0.460520       -0.317977
H           0.162326       -0.125876       -0.021081
C          -1.075156       -0.184037        0.951027
H          -0.985979       -0.215502        0.148865
C           0.283130        1.672382       -0.327967
H          -0.666502        0.354140        0.572113
H           0.078156       -1.735820       -0.808375
16
reaction_000_gen_9_frame_0091
H          -0.646840       -2.236333       -0.726580
C          -0.695137       -1.539116        0.383513
H           0.414259       -0.427397       -0.144537
C           1.159480        0.140633       -0.351984
H           0.599172        2.236966        1.128196
H           0.314816        1.504289        0.868376
H           1.282066        0.537521        0.266164
C           1.186272        0.066762        0.006095
H          -0.370418       -0.785105       -1.550729
C          -1.037450        0.287328       -0.212764
H           0.191867       -0.197729        0.115464
C          -1.234148       -0.026768        0.875466
H          -0.865790       -0.089706        0.155416
C           0.344781        1.809333       -0.284277
H          -0.783361        0.299571        0.328599
H           0.140430       -1.580249       -0.856420
16
reaction_000_gen_9_frame_0092
H          -0.876372       -2.191524       -1.061109
C          -0.769499       -1.615218        0.460369
H           0.517914       -0.184119       -0.087531
C           1.051360        0.183496       -0.085586
H           0.505490        2.035974        1.094540
H           0.145127        1.556855        0.911711
H           1.280210        0.168427        0.152780
C           0.941328        0.353808       -0.197249
H          -0.235278       -0.613793       -1.517812
C          -0.947642        0.258668       -0.333281
H           0.330034       -0.242096       -0.009370
C          -1.300321       -0.150141        0.975213
H          -0.824897       -0.157827        0.337621
C           0.364007        1.960766       -0.098540
H          -0.491858        0.223417        0.301702
H           0.310395       -1.586694       -0.843456
16
reaction_000_gen_9_frame_0093
H          -0.940840       -2.156659       -0.949220
C          -0.681555       -1.660931        0.466438
H           0.748602       -0.113803       -0.037453
C           1.024878        0.293651       -0.011461
H           0.189055        1.861587        1.229328
H           0.117157        1.633632        1.001735
H           1.623412        0.124545        0.137187
C           0.717911        0.364647       -0.468433
H          -0.062631       -0.608765       -1.618023
C          -0.760545        0.234550       -0.391807
H           0.088357       -0.372738       -0.044877
C          -1.435578        0.039204        1.096193
H          -0.884238        0.106700        0.172760
C           0.288084        1.679201       -0.018993
H          -0.454375        0.311220        0.451248
H           0.422307       -1.736040       -1.014621
16
reaction_000_gen_9_frame_0094
H          -0.937780       -2.140348       -0.893624
C          -0.601172       -1.657733        0.488108
H           0.479004        0.052506       -0.033716
C           0.951384        0.340115       -0.058479
H           0.039717        1.691885        1.332540
H           0.277824        1.778607        1.018362
H           1.507873        0.134944        0.147649
C           0.754897        0.311644       -0.657511
H          -0.075813       -0.585923       -1.653762
C          -0.585811        0.221804       -0.449420
H           0.296166       -0.343614       -0.032323
C          -1.350931        0.168420        1.008105
H          -0.853284       -0.040653        0.185671
C           0.283863        1.634995        0.122468
H          -0.524936        0.288567        0.567011
H           0.338999       -1.855217       -1.091078
16
reaction_000_gen_9_frame_0095
H          -0.855898       -1.986415       -0.891375
C          -0.458572       -1.642148        0.650363
H           0.303155        0.048280        0.013166
C           0.977792        0.457466       -0.177732
H           0.188358        1.575087        1.241679
H           0.239640        1.655632        1.057537
H           1.637516        0.333711        0.088187
C           0.843376        0.332382       -0.497874
H          -0.247840       -0.709410       -1.697556
C          -0.598694        0.146801       -0.454017
H           0.196387       -0.419738        0.035291
C          -1.379545        0.035446        0.922527
H          -0.891190       -0.060524        0.171519
C           0.221135        1.597084        0.146584
H          -0.535822        0.338833        0.651633
H           0.360203       -1.702486       -1.259931
16
reaction_000_gen_9_frame_0096
H          -0.713529       -1.780129       -0.567776
C          -0.225771       -1.750852        0.582422
H           0.358039       -0.186684       -0.104556
C           0.798611        0.561238       -0.282343
H           0.226986        1.420436        1.396912
H           0.193040        1.843222        1.030161
H           1.793051        0.162789        0.209669
C           0.859117        0.287535       -0.386083
H           0.029847       -0.804503       -1.597183
C          -0.769017        0.370077       -0.731755
H          -0.064474       -0.258994        0.096224
C          -1.219489        0.004023        0.987478
H          -0.888444       -0.073310        0.301859
C           0.203859        1.497532       -0.113675
H          -0.816840        0.300213        0.500923
H           0.235013       -1.592595       -1.322275
16
reaction_000_gen_9_frame_0097
H          -0.702080       -1.586431       -0.568101
C          -0.459077       -1.621826        0.581321
H           0.562519       -0.287150       -0.100810
C           0.753094        0.585890       -0.259192
H           0.191384        1.534706        1.365503
H           0.306318        1.852783        0.993310
H           1.885680        0.139973        0.330559
C           0.760954        0.346767       -0.331049
H          -0.023863       -0.903787       -1.383121
C          -0.740506        0.246535       -0.848568
H           0.162274       -0.350165       -0.140653
C          -1.007548        0.111309        0.916181
H          -0.946705       -0.167573        0.428827
C           0.207943        1.788954       -0.245723
H          -0.807078       -0.076574        0.449170
H          -0.143308       -1.613411       -1.187653
16
reaction_000_gen_9_frame_0098
H          -0.410408       -1.506428       -0.554381
C          -0.484689       -1.615525        0.513636
H           0.490367       -0.104448        0.008409
C           0.707537        0.784290       -0.055499
H           0.343031        1.230094        1.259338
H           0.251778        1.786315        0.755863
H           2.155757        0.186779        0.421941
C           0.879446        0.364753       -0.307027
H          -0.027075       -0.899240       -1.485777
C          -0.842493        0.136854       -0.829969
H          -0.070896       -0.216556       -0.221675
C          -1.068192       -0.053052        0.830357
H          -0.959086       -0.023514        0.533759
C           0.097540        1.728430       -0.050799
H          -0.826339       -0.216319        0.520636
H          -0.236277       -1.582433       -1.338812
16
reaction_000_gen_9_frame_0099
H          -0.424584       -1.411914       -0.485672
C          -0.305433       -1.616486        0.473165
H           0.576724       -0.093281       -0.007262
C           0.740533        0.632242        0.071631
H           0.512035        1.141198        1.315663
H           0.400380        1.960169        0.872043
H           2.251650        0.300464        0.368769
C           0.676284        0.449910       -0.279967
H          -0.235792       -0.945250       -1.358126
C          -0.866668        0.122476       -1.033405
H           0.003939       -0.355227       -0.173996
C          -1.056054       -0.067820        0.807186
H          -0.867102        0.016715        0.440530
C          -0.154474        1.623212       -0.157025
H          -0.874827       -0.374758        0.367682
H          -0.376611       -1.381649       -1.221215
16
reaction_000_gen_9_frame_0100
H          -0.260917       -1.309980       -0.539900
C          -0.462947       -1.763770        0.319196
H           0.539250       -0.002821        0.217785
C           0.542440        0.336019        0.174300
H           0.510807        0.857927        1.309361
H           0.575072        2.027185        0.689258
H           2.487206        0.387667        0.354427
C           0.724603        0.172137       -0.277962
H          -0.173158       -0.992349       -1.313746
C          -0.754730        0.174204       -0.884591
H          -0.019507       -0.268984       -0.282358
C          -1.222833        0.161677        0.673885
H          -1.015951       -0.079828        0.357801
C          -0.186491        1.761234       -0.095312
H          -0.894171       -0.201216        0.457515
H          -0.388674       -1.259101       -1.159660
16
reaction_000_gen_9_frame_0101
H          -0.294474       -1.336028       -0.717196
C          -0.514253       -1.774539        0.349013
H           0.586417        0.020789        0.353053
C           0.470424        0.098704        0.192734
H           0.533780        1.236756        1.401892
H           0.797896        1.996952        0.635040
H           2.646066        0.523635        0.453393
C           0.632771        0.077241       -0.258699
H          -0.137555       -0.809430       -1.438331
C          -0.704754        0.047177       -0.786441
H          -0.265116       -0.164021       -0.373804
C          -1.328738        0.309414        0.569553
H          -1.044757       -0.068788        0.318414
C          -0.167626        1.545012        0.171059
H          -0.745913       -0.227193        0.518897
H          -0.464169       -1.475681       -1.388576
16
reaction_000_gen_9_frame_0102
H          -0.238399       -1.084562       -0.815215
C          -0.402956       -1.640831        0.362731
H           0.644669        0.066959        0.357395
C           0.718438        0.041236        0.201673
H           0.503063        1.290397        1.163105
H           0.910896        1.878285        0.515298
H           2.552525        0.573438        0.529092
C           0.623091        0.072353       -0.436704
H          -0.075010       -0.631736       -1.376754
C          -0.854236        0.065472       -0.625268
H          -0.323925       -0.395148       -0.297989
C          -1.386160        0.360063        0.546870
H          -1.023684       -0.245574        0.342974
C          -0.146968        1.605740        0.213716
H          -0.617774       -0.338730        0.570212
H          -0.883569       -1.617361       -1.251138
16
reaction_000_gen_9_frame_0103
H          -0.241509       -1.046156       -0.880714
C          -0.490318       -1.643256        0.368428
H           0.408831       -0.047451        0.333673
C           0.736457        0.123106        0.109435
H           0.357947        1.169226        1.250196
H           0.860336        2.051527        0.570046
H           2.362165        0.386710        0.371658
C           0.742636        0.124557       -0.574298
H          -0.016561       -0.616960       -1.380573
C          -0.798314       -0.028607       -0.354980
H          -0.486692       -0.398439       -0.266473
C          -1.196677        0.297159        0.582764
H          -0.727028       -0.040693        0.285958
C          -0.199430        1.535030        0.094467
H          -0.480644       -0.390883        0.819588
H          -0.831200       -1.474869       -1.329176
16
reaction_000_gen_9_frame_0104
H          -0.122084       -0.851169       -0.900884
C          -0.389853       -1.279998        0.320942
H           0.482541       -0.062046        0.118357
C           0.641417        0.156111        0.252739
H           0.107423        1.345704        1.177789
H           0.990693        2.005604        0.332573
H           2.385596        0.388388        0.308118
C           0.588065        0.084947       -0.486819
H          -0.130258       -0.638534       -1.197381
C          -0.870102       -0.093423       -0.475308
H          -0.310260       -0.460384       -0.062571
C          -1.106873       -0.003932        0.741483
H          -0.801889        0.015614        0.304352
C          -0.071588        1.329411        0.026544
H          -0.738374       -0.459464        1.005624
H          -0.654455       -1.476829       -1.465558
16
reaction_000_gen_9_frame_0105
H          -0.300317       -0.668709       -0.849131
C          -0.551641       -1.351893        0.268166
H           0.431489       -0.324012       -0.064075
C           0.604903        0.168095        0.247873
H           0.361686        1.227221        0.936118
H           0.993675        1.753743        0.259123
H           2.284121        0.397012        0.567279
C           0.553659        0.081823       -0.633137
H          -0.060239       -0.563832       -1.185470
C          -0.645212        0.070686       -0.532282
H          -0.330312       -0.294633        0.097691
C          -1.184853       -0.137180        0.693731
H          -0.943754        0.130698        0.395911
C          -0.017932        1.390509        0.191761
H          -0.561175       -0.337281        0.995418
H          -0.634097       -1.542246       -1.388975
16
reaction_000_gen_9_frame_0106
H          -0.355519       -0.663446       -0.836328
C          -0.488477       -1.426667        0.062260
H           0.250487       -0.177083       -0.210921
C           0.496855       -0.001453        0.374935
H           0.202304        1.140797        0.788847
H           0.980063        1.825916        0.225244
H           2.510722        0.422842        0.404789
C           0.686310       -0.124784       -0.571033
H          -0.061525       -0.557137       -1.273547
C          -0.698822        0.317247       -0.277254
H          -0.435386       -0.301166        0.302508
C          -1.074128       -0.317714        0.587316
H          -0.803697        0.151501        0.517119
C          -0.068643        1.450768        0.148573
H          -0.670436       -0.339026        1.016833
H          -0.470110       -1.400596       -1.259341
16
reaction_000_gen_9_frame_0107
H          -0.335690       -0.582079       -0.711931
C          -0.371422       -1.471825       -0.066702
H           0.380572       -0.382066       -0.045093
C           0.228782        0.215739        0.548290
H           0.031456        1.090837        0.778541
H           0.991461        1.906381        0.159681
H           2.247604        0.375725        0.467638
C           0.589415       -0.248984       -0.741445
H           0.223860       -0.490065       -1.133363
C          -0.489382        0.176099       -0.527400
H          -0.225559       -0.328439        0.300226
C          -1.272871       -0.303311        0.508213
H          -0.595772        0.235909        0.487350
C          -0.095174        1.551681        0.157878
H          -0.816023       -0.348926        1.074047
H          -0.491257       -1.396676       -1.255931
16
reaction_000_gen_9_frame_0108
H          -0.343866       -0.554771       -0.672815
C          -0.281568       -1.528124       -0.017841
H           0.714945       -0.333007        0.133898
C           0.267315        0.285142        0.489375
H          -0.180162        1.080853        0.757045
H           0.858385        1.615805        0.108904
H           2.170279        0.469798        0.417799
C           0.544393       -0.235284       -0.572347
H           0.269763       -0.513079       -0.979801
C          -0.543207        0.314094       -0.417615
H          -0.064782       -0.191498        0.266905
C          -1.249356       -0.457787        0.269332
H          -0.554568        0.059945        0.382980
C          -0.153711        1.436783        0.147909
H          -0.912260       -0.195650        0.981094
H          -0.541599       -1.253219       -1.294822
16
reaction_000_gen_9_frame_0109
H          -0.312792       -0.891374       -0.837268
C          -0.140770       -1.392712        0.032834
H           0.713899       -0.109401        0.064084
C           0.099199        0.218116        0.635651
H          -0.168069        0.824378        1.005385
H           0.854025        1.432898        0.201341
H           2.239911        0.622049        0.322895
C           0.742090        0.086622       -0.604969
H           0.074934       -0.486475       -1.171605
C          -0.346157        0.304384       -0.438417
H          -0.146113       -0.129993        0.193688
C          -1.341537       -0.412828        0.315386
H          -0.598284       -0.063747        0.464609
C          -0.085265        1.277085        0.002500
H          -1.060296       -0.140746        1.231455
H          -0.524778       -1.138256       -1.417569
16
reaction_000_gen_9_frame_0110
H          -0.318838       -0.896780       -0.794445
C           0.078633       -1.486263        0.227543
H           0.721096       -0.069761        0.058259
C           0.042256        0.014681        0.508443
H          -0.266923        0.953185        0.996530
H           0.890065        1.444401        0.069000
H           2.225640        0.560666        0.025790
C           0.594083        0.131640       -0.480625
H           0.064334       -0.362981       -1.134726
C          -0.570845        0.364023       -0.577738
H          -0.041095       -0.269433        0.312252
C          -1.303338       -0.494764        0.347740
H          -0.590158        0.188277        0.603597
C           0.023975        1.227415        0.036636
H          -0.972627       -0.173249        1.248292
H          -0.576259       -1.131057       -1.446547
16
reaction_000_gen_9_frame_0111
H          -0.347620       -0.776841       -0.966440
C          -0.008015       -1.532458        0.352241
H           0.831571       -0.006142       -0.094463
C           0.198130        0.084497        0.604627
H          -0.295275        0.996813        1.257114
H           0.798617        1.256263        0.280262
H           2.074791        0.398773        0.120215
C           0.625035        0.145324       -0.540218
H           0.008161       -0.336621       -1.178133
C          -0.447954        0.279775       -0.592159
H          -0.097360       -0.048967        0.499521
C          -1.100366       -0.580079        0.134249
H          -0.401138        0.340631        0.524676
C          -0.143954        1.166061        0.011078
H          -0.945424       -0.277095        1.102778
H          -0.749198       -1.109934       -1.515348
16
reaction_000_gen_9_frame_0112
H          -0.363302       -0.909614       -0.874998
C           0.098618       -1.522689        0.410966
H           0.827728       -0.001899        0.071950
C           0.030264       -0.018315        0.811448
H          -0.211580        1.060754        1.214991
H           0.685429        1.008296        0.104301
H           1.908653        0.473766       -0.176029
C           0.649996        0.209338       -0.554928
H           0.023627       -0.209151       -1.099289
C          -0.402243        0.172901       -0.592613
H           0.143776        0.025311        0.393960
C          -0.847707       -0.439249        0.246487
H          -0.177668        0.205571        0.518547
C          -0.370929        1.234582        0.047541
H          -1.123952       -0.250192        1.049608
H          -0.870709       -1.039409       -1.571944
16
reaction_000_gen_9_frame_0113
H          -0.448056       -1.013321       -1.069009
C           0.238838       -1.440214        0.547852
H           0.707048       -0.221219        0.157436
C           0.123806        0.158784        0.698779
H          -0.304116        1.157707        1.486908
H           0.702175        1.133877        0.037396
H           1.662050        0.304609       -0.171187
C           0.436197        0.050595       -0.585889
H           0.169554       -0.214945       -1.003490
C          -0.289661        0.127709       -0.650259
H           0.066471       -0.040134        0.356327
C          -0.867983       -0.376966        0.220211
H          -0.109196        0.371620        0.622177
C          -0.387496        1.295785       -0.006479
H          -0.967312       -0.277609        1.027937
H          -0.732321       -1.016279       -1.668709
16
reaction_000_gen_9_frame_0114
H          -0.389205       -0.933026       -0.996782
C           0.203539       -1.486448        0.406680
H           0.769930       -0.233364        0.010909
C           0.270623        0.094512        0.664620
H          -0.189949        1.253950        1.841844
H           0.653088        1.266613       -0.026886
H           1.747305        0.244103       -0.336351
C           0.411931       -0.143187       -0.499770
H           0.088046       -0.031897       -0.861654
C          -0.383807        0.141759       -0.840231
H          -0.094982       -0.016164        0.302369
C          -0.861242       -0.548752        0.271235
H          -0.088390        0.532497        0.762368
C          -0.459917        1.266036       -0.054416
H          -0.760591       -0.447566        1.157234
H          -0.916380       -0.959067       -1.801170
16
reaction_000_gen_9_frame_0115
H          -0.290849       -0.748710       -1.235550
C           0.106579       -1.434593        0.382193
H           0.797474       -0.175512        0.000561
C           0.451245        0.165398        0.805805
H          -0.109174        1.298299        2.054790
H           0.445859        1.445349        0.027433
H           1.862839        0.044317       -0.095130
C           0.497941       -0.069027       -0.603987
H           0.145425       -0.039383       -0.926831
C          -0.445289       -0.106772       -0.713431
H          -0.132479       -0.115814        0.123436
C          -1.180287       -0.701069        0.187536
H           0.066923        0.490313        0.772264
C          -0.572581        1.342551       -0.196776
H          -0.658860       -0.388718        1.086488
H          -0.984765       -1.006631       -1.668802
16
reaction_000_gen_9_frame_0116
H          -0.556435       -0.895858       -1.445415
C           0.108662       -1.518945        0.628891
H           0.954233       -0.259910       -0.024581
C           0.519737        0.238830        0.735509
H          -0.294822        1.355569        1.909839
H           0.512093        1.550433        0.101105
H           1.957942       -0.091409       -0.058271
C           0.545907       -0.014579       -0.675826
H           0.142150        0.122495       -0.975666
C          -0.481524       -0.184097       -0.570253
H          -0.205590       -0.015836        0.261482
C          -1.287994       -0.670475        0.149332
H           0.129533        0.466888        0.681912
C          -0.635261        1.322772       -0.251438
H          -0.418508       -0.548424        1.070496
H          -0.990122       -0.857454       -1.537114
16
reaction_000_gen_9_frame_0117
H          -0.614268       -0.927251       -1.336197
C           0.019196       -1.473576        0.724876
H           1.011340       -0.231642        0.054400
C           0.476368        0.153738        0.711370
H          -0.291299        1.297356        1.993254
H           0.651829        1.620103       -0.122368
H           1.746241       -0.091309       -0.229043
C           0.644501        0.047187       -0.672726
H           0.267234       -0.011716       -0.965221
C          -0.473598       -0.383902       -0.534482
H          -0.209368        0.177440        0.328519
C          -1.396404       -0.565558        0.105062
H           0.170367        0.408617        0.620204
C          -0.686303        1.248891       -0.406580
H          -0.364326       -0.452047        1.215194
H          -0.951509       -0.816331       -1.486262
16
reaction_000_gen_9_frame_0118
H          -0.544811       -0.750761       -1.395965
C           0.156901       -1.668628        0.700506
H           0.989838       -0.257774        0.081409
C           0.563260        0.044627        0.627493
H          -0.547621        1.331733        1.986425
H           0.564442        1.735123        0.051713
H           1.716507        0.024299       -0.294587
C           0.595257       -0.108705       -0.771176
H           0.344170       -0.126766       -1.118222
C          -0.477050       -0.283551       -0.437654
H          -0.092687        0.205183        0.237647
C          -1.451119       -0.294443        0.072002
H           0.221163        0.348651        0.721463
C          -0.730660        1.253480       -0.189557
H          -0.443498       -0.674899        1.249063
H          -0.864093       -0.777570       -1.520559
16
reaction_000_gen_9_frame_0119
H          -0.584844       -0.826394       -1.410641
C          -0.005864       -1.728331        0.607478
H           0.885285       -0.318434        0.189215
C           0.735079        0.054112        0.712266
H          -0.566428        1.402579        1.825787
H           0.451634        1.847934        0.083459
H           1.614877       -0.058271       -0.342929
C           0.634452       -0.162362       -0.546009
H           0.206736       -0.174421       -1.172206
C          -0.361874       -0.196017       -0.537391
H           0.069343        0.121076        0.220122
C          -1.293010       -0.400467        0.257805
H           0.430240        0.517393        0.685575
C          -0.937064        1.056421       -0.140659
H          -0.528213       -0.588067        1.092644
H          -0.750346       -0.546750       -1.524517
16
reaction_000_gen_9_frame_0120
H          -0.534852       -0.990592       -1.259868
C           0.025975       -1.719999        0.441485
H           0.943492       -0.371657        0.377762
C           0.699612        0.152011        0.799041
H          -0.779952        1.310599        1.784134
H           0.366894        1.837345       -0.041510
H           1.683472        0.096448       -0.318821
C           0.385756       -0.235398       -0.574704
H           0.157986       -0.159511       -1.293662
C          -0.314571       -0.194317       -0.480201
H           0.342761        0.165243        0.263396
C          -1.307527       -0.386484        0.316348
H           0.443456        0.540807        0.631701
C          -1.024763        1.131968       -0.013340
H          -0.485398       -0.530933        0.958575
H          -0.602339       -0.645531       -1.590336
16
reaction_000_gen_9_frame_0121
H          -0.609609       -0.887894       -1.413305
C           0.001116       -1.943995        0.396978
H           0.800538       -0.359930        0.347426
C           0.833124        0.201315        0.812974
H          -0.894466        1.540472        1.603502
H           0.665263        1.845115       -0.128651
H           1.545831        0.082031       -0.146634
C           0.533625       -0.445805       -0.403720
H           0.204252       -0.234550       -1.382042
C          -0.238533        0.117664       -0.389247
H           0.156228        0.070911        0.217334
C          -1.166788       -0.324153        0.251988
H           0.306073        0.500821        0.803421
C          -1.136735        0.962938       -0.092652
H          -0.462498       -0.341920        0.857408
H          -0.537422       -0.783020       -1.334779
16
reaction_000_gen_9_frame_0122
H          -0.557121       -1.041897       -1.284745
C           0.056461       -1.830295        0.329599
H           0.654221       -0.212533        0.353836
C           0.840777        0.229033        0.893088
H          -0.939915        1.445992        1.483422
H           0.770131        1.797263       -0.080075
H           1.784156        0.015966       -0.270045
C           0.529585       -0.517475       -0.178770
H           0.241445       -0.125397       -1.407068
C          -0.502819        0.005814       -0.305025
H           0.105831        0.165724        0.288649
C          -1.106315       -0.389915        0.278791
H           0.484096        0.635569        0.883973
C          -1.076913        0.922631       -0.199660
H          -0.786469       -0.284783        0.774921
H          -0.497152       -0.815699       -1.560890
16
reaction_000_gen_9_frame_0123
H          -0.585680       -0.822729       -1.224592
C           0.146916       -2.047933        0.543107
H           0.832683       -0.472912        0.504124
C           0.899738        0.413944        0.744485
H          -0.941713        1.533211        1.588625
H           0.790925        1.746683        0.019362
H           1.687871       -0.017052       -0.342722
C           0.728590       -0.457135       -0.411379
H           0.059192        0.060406       -1.431745
C          -0.292695        0.015098       -0.408426
H           0.175363        0.249691        0.215544
C          -1.262985       -0.440732        0.257443
H           0.611795        0.487209        1.151533
C          -1.299609        0.861535       -0.182538
H          -0.849323       -0.396817        0.728731
H          -0.701067       -0.712467       -1.751551
16
reaction_000_gen_9_frame_0124
H          -0.638436       -0.526980       -1.263630
C           0.086632       -1.943758        0.591288
H           0.780014       -0.704934        0.529134
C           0.918653        0.454963        0.652366
H          -0.947557        1.712405        1.442407
H           0.716809        1.795803        0.048065
H           1.819417       -0.060678       -0.397605
C           0.797069       -0.626940       -0.455517
H           0.178193        0.198079       -1.327609
C          -0.060742       -0.094926       -0.322162
H           0.141130        0.174748        0.114219
C          -1.353456       -0.488010        0.268929
H           0.379261        0.478565        1.331546
C          -1.357344        0.743705       -0.237408
H          -0.797959       -0.408592        0.822527
H          -0.661685       -0.703450       -1.796549
16
reaction_000_gen_9_frame_0125
H          -0.710618       -0.405087       -1.374230
C           0.076890       -1.758247        0.593977
H           0.910705       -0.722825        0.566530
C           0.807474        0.451628        0.581188
H          -0.943762        1.678751        1.306098
H           0.720915        1.816045        0.110741
H           1.707405        0.013836       -0.363047
C           0.723835       -0.827688       -0.527810
H           0.137763        0.421552       -1.216055
C          -0.018819       -0.243190       -0.151429
H           0.217301        0.100364       -0.017332
C          -1.316993       -0.313529        0.336830
H           0.628035        0.321492        1.447486
C          -1.413249        0.652082       -0.323460
H          -0.931585       -0.444110        0.799856
H          -0.595298       -0.741074       -1.769344
16
reaction_000_gen_9_frame_0126
H          -0.777142       -0.354974       -1.365738
C           0.168795       -1.801143        0.618933
H           0.827425       -0.813703        0.620738
C           0.651915        0.534288        0.845742
H          -0.980786        1.718826        1.163890
H           0.609899        1.843472        0.223089
H           1.708920       -0.262129       -0.343301
C           0.857298       -0.849580       -0.580773
H           0.142717        0.386604       -1.385008
C          -0.057550       -0.065476       -0.129698
H           0.491596        0.191299       -0.031228
C          -1.255617       -0.401518        0.140237
H           0.560481        0.275457        1.557800
C          -1.445051        0.639215       -0.296070
H          -0.834402       -0.227303        0.706035
H          -0.668498       -0.813335       -1.744649
16
reaction_000_gen_9_frame_0127
H          -0.710936       -0.461029       -1.276516
C          -0.076788       -1.738419        0.444605
H           1.022973       -0.680948        0.569722
C           0.689121        0.556766        0.801012
H          -0.830611        1.690799        1.129285
H           0.586153        1.883472        0.024441
H           1.873380       -0.268792       -0.138962
C           0.803215       -0.865636       -0.468038
H           0.117000        0.338174       -1.469977
C          -0.232893        0.053049       -0.220411
H           0.460101        0.266264       -0.007359
C          -1.288178       -0.429283        0.161240
H           0.609157        0.300691        1.498125
C          -1.284521        0.663594       -0.248825
H          -0.809435       -0.370941        0.826649
H          -0.927738       -0.937760       -1.624992
16
reaction_000_gen_9_frame_0128
H          -0.396090       -0.457815       -1.188981
C          -0.048155       -1.824308        0.411287
H           1.146244       -0.710749        0.439154
C           0.802370        0.544945        0.796607
H          -0.815745        1.522478        1.261784
H           0.527583        1.757262        0.180392
H           1.864132       -0.184177       -0.137646
C           0.835840       -0.778828       -0.423776
H           0.213447        0.439101       -1.489577
C          -0.419310        0.066156       -0.115637
H           0.536303        0.332172       -0.154473
C          -1.469703       -0.394820        0.176597
H           0.452062        0.371481        1.574157
C          -1.379559        0.622867       -0.230752
H          -0.879465       -0.229361        0.772826
H          -0.969954       -1.076404       -1.871963
16
reaction_000_gen_9_frame_0129
H          -0.606568       -0.263397       -1.103471
C          -0.054507       -1.872542        0.480556
H           1.141007       -0.708661        0.451813
C           0.892117        0.658573        0.869002
H          -0.611050        1.442831        1.342419
H           0.707840        1.662097        0.003165
H           1.787887       -0.033927       -0.119035
C           1.003275       -0.821571       -0.461236
H           0.256677        0.461389       -1.448283
C          -0.597945        0.045984       -0.329606
H           0.478136        0.259959        0.024724
C          -1.292404       -0.657053        0.033620
H           0.331147        0.385718        1.626598
C          -1.527007        0.617672       -0.250244
H          -0.948808       -0.136854        0.763155
H          -0.959797       -1.040219       -1.883178
16
reaction_000_gen_9_frame_0130
H          -0.335651       -0.190016       -0.970567
C           0.021706       -1.726811        0.577220
H           1.195186       -0.841206        0.415053
C           0.908540        0.557122        0.732477
H          -0.563976        1.745585        1.427497
H           0.740195        1.683457       -0.185960
H           1.523916        0.086406       -0.131978
C           0.816368       -0.834119       -0.133489
H           0.130666        0.486687       -1.682308
C          -0.549266        0.167260       -0.110005
H           0.578030        0.430054       -0.101008
C          -1.363715       -0.742228       -0.087279
H           0.513791        0.511668        1.459326
C          -1.503584        0.351820       -0.017187
H          -1.017150       -0.502480        0.748203
H          -1.095056       -1.183200       -1.939994
16
reaction_000_gen_9_frame_0131
H          -0.404040        0.042146       -0.809303
C           0.135217       -1.885461        0.640311
H           1.286650       -0.923045        0.413403
C           0.856217        0.772874        0.722766
H          -0.570311        1.772743        1.474837
H           0.758612        1.413233       -0.181620
H           1.354984        0.021562       -0.113760
C           0.964426       -0.926373       -0.245959
H           0.033795        0.710953       -1.628727
C          -0.575212        0.389527        0.078671
H           0.534823        0.416561       -0.072103
C          -1.527045       -0.550451       -0.081882
H           0.488025        0.453601        1.332841
C          -1.575758        0.289989       -0.248768
H          -0.800356       -0.817654        0.661957
H          -0.960029       -1.180204       -1.942665
16
reaction_000_gen_9_frame_0132
H          -0.287476        0.070344       -0.895219
C           0.277651       -1.897727        0.474140
H           1.036548       -0.822030        0.581984
C           0.839068        0.808364        0.810018
H          -0.497281        1.822799        1.417119
H           0.872504        1.365395       -0.213372
H           1.391461        0.046326        0.202803
C           0.907950       -0.970145       -0.221103
H          -0.135625        0.464046       -1.600619
C          -0.570132        0.390662        0.098582
H           0.481145        0.427243       -0.009553
C          -1.638975       -0.581932       -0.131609
H           0.472606        0.609127        1.288133
C          -1.657359        0.207443       -0.323094
H          -0.741316       -0.806542        0.481024
H          -0.750769       -1.133372       -1.959235
16
reaction_000_gen_9_frame_0133
H          -0.451879        0.210655       -1.053787
C           0.360200       -1.979899        0.386223
H           1.203303       -1.009701        0.602769
C           0.775963        0.572673        0.947973
H          -0.372052        1.827631        1.076949
H           0.894602        1.405174       -0.282585
H           1.397734       -0.059837        0.345120
C           0.970268       -1.066381       -0.005511
H          -0.300772        0.581572       -1.408365
C          -0.690969        0.421610        0.203471
H           0.465299        0.453465        0.009827
C          -1.643373       -0.325904       -0.140340
H           0.455746        0.580565        1.148045
C          -1.676346        0.408806       -0.438699
H          -0.792175       -0.799364        0.412337
H          -0.595550       -1.221065       -1.803428
16
reaction_000_gen_9_frame_0134
H          -0.317353        0.286491       -1.025617
C           0.379204       -1.877042        0.213034
H           1.224199       -1.027338        0.568675
C           0.793384        0.532893        0.929956
H          -0.321999        1.755419        0.930139
H           1.030953        1.548523       -0.224302
H           1.272696       -0.227988        0.422140
C           1.048495       -1.127066        0.273574
H          -0.359368        0.651378       -1.381619
C          -0.800013        0.466735        0.343079
H           0.485093        0.525458       -0.117271
C          -1.578100       -0.396300       -0.075461
H           0.415414        0.642875        1.139653
C          -1.808153        0.513358       -0.574865
H          -0.770941       -0.948731        0.380766
H          -0.693511       -1.318663       -1.801883
16
reaction_000_gen_9_frame_0135
H          -0.425451        0.486279       -0.963118
C           0.473405       -1.869914        0.151880
H           1.298336       -0.921131        0.515766
C           0.802669        0.443681        0.884360
H          -0.291690        1.646951        0.802190
H           0.964305        1.453427       -0.262152
H           1.165896       -0.272297        0.495094
C           1.139223       -1.337652        0.362822
H          -0.411929        0.745252       -1.287630
C          -0.757133        0.499629        0.340472
H           0.579733        0.504609       -0.035887
C          -1.533914       -0.219252       -0.167926
H           0.397560        0.613721        1.174601
C          -1.941360        0.422357       -0.537139
H          -0.918465       -0.824547        0.387595
H          -0.541186       -1.371113       -1.860929
16
reaction_000_gen_9_frame_0136
H          -0.501378        0.443744       -1.093643
C           0.410241       -2.083570        0.186698
H           1.503947       -0.799084        0.606654
C           0.901763        0.393503        0.907291
H          -0.428899        1.599173        0.841888
H           0.987355        1.468899       -0.391159
H           1.093926       -0.241584        0.480203
C           1.197871       -1.491059        0.394233
H          -0.435771        0.580163       -1.257401
C          -0.919715        0.661359        0.322450
H           0.388107        0.398532       -0.054294
C          -1.524869       -0.376082       -0.294917
H           0.409682        0.806294        1.216243
C          -1.806683        0.433910       -0.456907
H          -0.695166       -0.529825        0.436651
H          -0.580413       -1.264373       -1.843989
16
reaction_000_gen_9_frame_0137
H          -0.610549        0.287453       -1.151873
C           0.409943       -2.008965        0.459484
H           1.405683       -0.874189        0.612234
C           1.047562        0.148777        0.877745
H          -0.269257        1.535783        0.634627
H           1.043196        1.430752       -0.478500
H           1.157750       -0.373356        0.591226
C           1.221631       -1.510407        0.249598
H          -0.574579        0.612436       -1.261968
C          -0.797267        0.860751        0.259755
H           0.443961        0.437119       -0.002406
C          -1.568849       -0.074991       -0.351324
H           0.206254        0.811995        1.321187
C          -1.918649        0.463127       -0.401443
H          -0.586542       -0.453271        0.434725
H          -0.610288       -1.293014       -1.793067
16
reaction_000_gen_9_frame_0138
H          -0.776973        0.121560       -1.167291
C           0.477290       -2.095281        0.516450
H           1.368027       -0.829093        0.481828
C           0.875138        0.298232        0.954935
H          -0.264006        1.461504        0.647682
H           1.215129        1.290041       -0.508945
H           1.215810       -0.417397        0.856154
C           1.298484       -1.374539        0.062000
H          -0.606782        0.566284       -1.165213
C          -0.750334        1.081593        0.149614
H           0.382132        0.431133        0.018934
C          -1.641287       -0.092696       -0.298708
H           0.449341        0.825226        1.408267
C          -1.984952        0.519344       -0.402163
H          -0.590196       -0.577865        0.321993
H          -0.666821       -1.208044       -1.875536
16
reaction_000_gen_9_frame_0139
H          -0.883705        0.096057       -1.282519
C           0.422797       -1.989424        0.492643
H           1.340302       -0.884207        0.608480
C           0.743023        0.383612        0.848111
H          -0.460494        1.437836        0.765102
H           1.238836        1.372549       -0.481581
H           1.405321       -0.418792        0.886494
C           1.241633       -1.241416        0.162616
H          -0.390413        0.428879       -1.288346
C          -0.705751        1.097180       -0.018922
H           0.178535        0.506058        0.059905
C          -1.588395       -0.050802       -0.136260
H           0.613399        0.837233        1.295022
C          -1.924642        0.432357       -0.363803
H          -0.507104       -0.782475        0.305867
H          -0.723342       -1.224645       -1.852809
16
reaction_000_gen_9_frame_0140
H          -0.947702        0.107011       -1.346589
C           0.520372       -2.081415        0.484484
H           1.356824       -0.762373        0.696366
C           0.882589        0.347241        0.951722
H          -0.502800        1.452166        0.824931
H           1.270269        1.293844       -0.567235
H           1.473719       -0.467361        0.835086
C           1.216145       -1.127888        0.155364
H          -0.644525        0.430595       -1.326919
C          -0.871927        1.136658       -0.082328
H           0.344964        0.520126        0.087549
C          -1.591312       -0.136073       -0.232072
H           0.583497        0.924878        1.331516
C          -1.837926        0.159244       -0.302726
H          -0.500256       -0.708871        0.327549
H          -0.751931       -1.087783       -1.836698
16
reaction_000_gen_9_frame_0141
H          -0.936603        0.196087       -1.191488
C           0.427190       -2.229462        0.443084
H           1.359324       -0.666780        0.810753
C           1.078265        0.298727        1.069260
H          -0.610757        1.461486        0.763870
H           1.301489        1.096730       -0.829855
H           1.495271       -0.512172        0.893647
C           1.006240       -1.256392        0.380038
H          -0.690725        0.213760       -1.304866
C          -0.850886        1.240491       -0.002150
H           0.468486        0.636639        0.071728
C          -1.592410       -0.098815       -0.372279
H           0.723782        1.063621        1.352270
C          -1.833117        0.109082       -0.476650
H          -0.551397       -0.595641        0.344282
H          -0.794152       -0.957360       -1.951644
16
reaction_000_gen_9_frame_0142
H          -0.861795       -0.006779       -1.077613
C           0.502946       -2.360223        0.494213
H           1.319814       -0.584916        0.787040
C           1.118601        0.408151        0.971651
H          -0.519287        1.467434        0.791675
H           1.269196        1.087227       -0.919289
H           1.497051       -0.760125        0.970736
C           0.828410       -1.339854        0.270172
H          -0.556414        0.221991       -1.148255
C          -0.843686        1.385102        0.050000
H           0.507035        0.770862        0.038963
C          -1.523265       -0.110129       -0.304868
H           0.723357        1.269160        1.279729
C          -1.999675        0.048565       -0.554874
H          -0.560474       -0.755423        0.273477
H          -0.901817       -0.741044       -1.922758
16
reaction_000_gen_9_frame_0143
H          -0.837899        0.157759       -1.068940
C           0.372092       -2.284482        0.541590
H           1.422494       -0.571034        0.940281
C           1.167114        0.215926        1.127067
H          -0.636543        1.561495        0.897958
H           1.367702        1.065633       -0.884667
H           1.691281       -0.748838        1.012890
C           0.971528       -1.431645        0.150104
H          -0.953836        0.360055       -0.996515
C          -0.900562        1.488338       -0.186924
H           0.549362        0.783158        0.063299
C          -1.500924       -0.144976       -0.315975
H           0.930076        1.154414        1.015914
C          -2.021608       -0.018997       -0.383293
H          -0.461355       -0.750548        0.185997
H          -1.158921       -0.836258       -2.098788
16
reaction_000_gen_9_frame_0144
H          -0.694214        0.211518       -1.129129
C           0.403793       -2.230685        0.441044
H           1.429570       -0.511410        1.206940
C           1.244552        0.286181        1.244842
H          -0.469881        1.329540        0.871228
H           1.364509        0.961941       -1.100958
H           1.509711       -0.811339        0.947989
C           0.939913       -1.375243        0.042132
H          -0.856889        0.465476       -1.041668
C          -0.922989        1.393686       -0.095574
H           0.545424        0.610974       -0.020109
C          -1.621466       -0.064760       -0.280846
H           0.855556        1.138440        1.042540
C          -1.836920        0.038394       -0.260797
H          -0.679575       -0.515124        0.342426
H          -1.211093       -0.927588       -2.210058
16
reaction_000_gen_9_frame_0145
H          -0.793668        0.134389       -1.210489
C           0.332707       -2.089594        0.524676
H           1.448163       -0.460348        1.130512
C           1.340017        0.264738        0.975037
H          -0.646336        1.467397        0.985330
H           1.533647        0.753342       -1.050136
H           1.378863       -0.762583        1.030157
C           1.033291       -1.341135        0.015145
H          -0.946336        0.363811       -0.947151
C          -0.884326        1.569656       -0.135612
H           0.836976        0.439134        0.006622
C          -1.435836       -0.052196       -0.311878
H           0.816195        1.140153        1.081421
C          -1.789683       -0.004414       -0.396857
H          -0.926410       -0.544432        0.511256
H          -1.297264       -0.877920       -2.208031
16
reaction_000_gen_9_frame_0146
H          -0.728909        0.127990       -1.117564
C           0.402394       -2.186121        0.693791
H           1.523787       -0.561312        1.200665
C           1.300114        0.395187        1.049827
H          -0.471469        1.606117        0.779759
H           1.401672        0.556121       -1.111432
H           1.330831       -0.711474        0.864447
C           0.931551       -1.335853        0.157731
H          -0.917285        0.263692       -0.932120
C          -1.063281        1.502523       -0.139306
H           0.787209        0.685240       -0.075436
C          -1.286183       -0.102123       -0.262803
H           0.888772        1.408828        1.081235
C          -1.842121       -0.170130       -0.358320
H          -1.062585       -0.504904        0.479373
H          -1.194497       -0.973781       -2.309846
16
reaction_000_gen_9_frame_0147
H          -0.523226        0.201316       -1.105850
C           0.511426       -2.253402        0.814487
H           1.461451       -0.641763        1.234637
C           1.238370        0.544740        0.894257
H          -0.439685        1.463714        0.714915
H           1.153648        0.780459       -0.971810
H           1.298373       -0.548289        0.771277
C           0.995082       -1.261099        0.265511
H          -0.892446        0.258522       -1.135988
C          -1.031822        1.491163       -0.124221
H           0.521863        0.444639        0.030975
C          -1.381971        0.084661       -0.165084
H           1.152178        1.091629        1.027260
C          -1.814692       -0.131977       -0.414252
H          -1.062036       -0.499661        0.531923
H          -1.186513       -1.024650       -2.368037
16
reaction_000_gen_9_frame_0148
H          -0.693750        0.228666       -1.255565
C           0.428597       -2.300141        0.769893
H           1.367064       -0.808051        1.167271
C           1.228513        0.497171        0.695109
H          -0.347360        1.438946        0.498122
H           1.484455        0.745827       -0.907728
H           1.252990       -0.504235        0.743679
C           0.925670       -1.230814        0.280953
H          -0.884055        0.177988       -1.048169
C          -1.044433        1.510259       -0.035308
H           0.527024        0.671661        0.319813
C          -1.398235        0.242406       -0.007025
H           1.154562        1.120443        0.759410
C          -1.813503       -0.126369       -0.427339
H          -0.984774       -0.660789        0.596377
H          -1.202763       -1.002967       -2.149492
16
reaction_000_gen_9_frame_0149
H          -0.728800        0.266427       -1.435371
C           0.452857       -2.231455        0.631725
H           1.373399       -1.087331        1.139269
C           1.279702        0.625547        0.692661
H          -0.453250        1.414035        0.464502
H           1.510543        0.929719       -0.679166
H           1.289191       -0.494285        0.701581
C           0.966179       -1.332108        0.265046
H          -0.898264        0.153450       -1.011207
C          -0.877598        1.438158       -0.099940
H           0.418887        0.895955        0.396419
C          -1.520592        0.053847        0.182977
H           1.083365        1.060634        0.809821
C          -1.753736        0.010372       -0.518976
H          -0.977343       -0.750365        0.487949
H          -1.164540       -0.952600       -2.027291
16
reaction_000_gen_9_frame_0150
H          -0.633476        0.228516       -1.321270
C           0.478720       -2.091323        0.668399
H           0.989466       -1.061146        0.995910
C           1.117312        0.649159        0.713157
H          -0.330528        1.305434        0.551216
H           1.564307        0.953841       -0.613665
H           1.230301       -0.560023        0.625513
C           1.043825       -1.318053        0.316246
H          -0.748785       -0.030721       -0.879593
C          -0.775206        1.395735       -0.094271
H           0.402192        1.078657        0.068450
C          -1.496015        0.119162        0.233125
H           0.958403        1.029187        0.767513
C          -1.564252        0.031184       -0.361044
H          -1.064963       -0.665573        0.435346
H          -1.171301       -1.064034       -2.105032
16
reaction_000_gen_9_frame_0151
H          -0.608467        0.324409       -1.363444
C           0.664599       -2.115076        0.565048
H           0.915396       -0.891972        0.938053
C           1.234826        0.744422        0.680030
H          -0.339394        1.247792        0.574108
H           1.482961        0.806351       -0.595877
H           1.151696       -0.858153        0.630097
C           0.984800       -1.091065        0.318548
H          -0.734417       -0.202837       -0.980727
C          -0.778942        1.407833       -0.140097
H           0.545074        1.097979       -0.029608
C          -1.505709        0.271515        0.358456
H           0.882032        0.996989        0.841304
C          -1.790804        0.085751       -0.357867
H          -1.025401       -0.785423        0.525995
H          -1.078251       -1.038514       -1.964018
16
reaction_000_gen_9_frame_0152
H          -0.680276        0.434123       -1.462555
C           0.702678       -1.992606        0.447986
H           0.810700       -0.965335        1.011459
C           1.134801        0.678537        0.650240
H          -0.311425        1.274549        0.607008
H           1.608086        0.764283       -0.624386
H           1.091082       -0.818409        0.757284
C           1.052162       -0.932107        0.370287
H          -0.671045       -0.258973       -0.968683
C          -0.730880        1.362333       -0.141063
H           0.482635        1.136577       -0.145144
C          -1.323895       -0.010429        0.511909
H           0.789218        0.905745        0.785825
C          -1.780254        0.111047       -0.419761
H          -1.181322       -0.687521        0.484310
H          -0.992265       -1.001815       -1.864717
16
reaction_000_gen_9_frame_0153
H          -0.735454        0.483033       -1.454957
C           0.808304       -2.066372        0.509957
H           0.978272       -0.953926        0.998037
C           1.130591        0.643056        0.662176
H          -0.311490        1.220578        0.629778
H           1.567700        0.809079       -0.570328
H           0.989479       -0.929506        0.491162
C           1.169229       -1.023001        0.444621
H          -0.566084       -0.211109       -1.108543
C          -0.752359        1.393540       -0.172750
H           0.376797        1.173162        0.070365
C          -1.460955        0.204847        0.408649
H           0.817741        1.048762        0.912762
C          -1.734863        0.047495       -0.467198
H          -1.335088       -0.577960        0.519152
H          -0.941821       -1.261678       -1.872882
16
reaction_000_gen_9_frame_0154
H          -0.729827        0.599918       -1.621157
C           0.722173       -2.174605        0.478938
H           0.804403       -0.734450        1.025603
C           1.074878        0.502534        0.456625
H          -0.393274        1.239751        0.731936
H           1.555284        0.775158       -0.653385
H           1.010176       -0.974592        0.586799
C           1.226507       -1.093739        0.458183
H          -0.533273       -0.213901       -1.042584
C          -0.630313        1.361406       -0.149837
H           0.368209        1.252595       -0.022853
C          -1.362625        0.196180        0.459563
H           0.713448        1.017419        0.819040
C          -1.560027        0.073765       -0.316615
H          -1.289003       -0.608580        0.558893
H          -0.976738       -1.218858       -1.769147
16
reaction_000_gen_9_frame_0155
H          -0.652120        0.660160       -1.596662
C           0.880729       -2.254309        0.558846
H           0.744651       -0.564901        0.966564
C           1.277710        0.352693        0.393096
H          -0.334186        0.969123        0.629344
H           1.677504        0.709697       -0.619299
H           1.106582       -0.998777        0.708165
C           1.088081       -0.976260        0.533449
H          -0.576996       -0.152646       -0.944834
C          -0.672368        1.319535       -0.154801
H           0.379189        1.214727       -0.022223
C          -1.477463        0.259825        0.484606
H           0.522944        1.062709        0.671409
C          -1.512368        0.156817       -0.375333
H          -1.456550       -0.730300        0.469927
H          -0.995338       -1.028092       -1.702254
16
reaction_000_gen_9_frame_0156
H          -0.805074        0.433917       -1.654889
C           0.913566       -2.325900        0.539067
H           0.656762       -0.567828        0.963533
C           1.225329        0.231959        0.458880
H          -0.309100        0.853239        0.642305
H           1.560358        0.663742       -0.627507
H           1.135736       -0.898107        0.635837
C           1.203034       -0.931154        0.511450
H          -0.740447       -0.157177       -1.030881
C          -0.612857        1.324127       -0.139683
H           0.248744        1.205671        0.200617
C          -1.416083        0.282179        0.609785
H           0.556659        1.160284        0.540359
C          -1.560141        0.320092       -0.396029
H          -1.282901       -0.601546        0.451393
H          -0.773585       -0.993497       -1.704235
16
reaction_000_gen_9_frame_0157
H          -0.978859        0.416442       -1.501594
C           0.892096       -2.438968        0.592872
H           0.766643       -0.717690        1.079115
C           1.308142        0.139767        0.308579
H          -0.314281        0.811833        0.810820
H           1.452458        0.695055       -0.616849
H           1.066580       -0.839746        0.675764
C           1.342572       -0.945536        0.350628
H          -0.504762        0.161411       -1.117240
C          -0.625188        1.283217       -0.001061
H           0.194289        0.958956        0.159878
C          -1.508809        0.255484        0.559259
H           0.462260        1.122094        0.534436
C          -1.421074        0.466858       -0.256705
H          -1.311717       -0.455458        0.272522
H          -0.820350       -0.913718       -1.850423
16
reaction_000_gen_9_frame_0158
H          -1.006954        0.485870       -1.458061
C           1.040286       -2.561341        0.551528
H           0.587938       -0.788803        1.020327
C           1.399625        0.181747        0.260554
H          -0.342247        0.625668        0.775045
H           1.327165        0.769544       -0.577961
H           1.035721       -0.793560        0.594192
C           1.355982       -0.810017        0.308499
H          -0.480032        0.197659       -1.276954
C          -0.665155        1.222521        0.015013
H           0.219510        1.083232        0.154570
C          -1.465407        0.270805        0.719383
H           0.522702        1.247564        0.592093
C          -1.363873        0.469639        0.075250
H          -1.381681       -0.658427        0.216527
H          -0.783581       -0.942101       -1.970003
16
reaction_000_gen_9_frame_0159
H          -1.141483        0.593633       -1.573719
C           0.904796       -2.699090        0.572566
H           0.858426       -0.979225        1.131512
C           1.648290        0.162194        0.288531
H          -0.401130        0.548196        0.905685
H           1.041649        0.716830       -0.786796
H           1.016752       -0.668287        0.519643
C           1.334238       -0.753843        0.441427
H          -0.477287        0.161668       -1.295801
C          -0.625330        1.254021       -0.224250
H           0.162588        1.215895        0.254964
C          -1.420230        0.323406        0.838419
H           0.479773        1.280700        0.631264
C          -1.115204        0.487500        0.074276
H          -1.409954       -0.654220        0.211034
H          -0.855895       -0.989378       -1.988755
16
reaction_000_gen_9_frame_0160
H          -1.230496        0.683006       -1.602236
C           0.760038       -2.663294        0.748390
H           0.888961       -1.077827        1.118180
C           1.678554        0.208353        0.608933
H          -0.310425        0.457802        0.865946
H           1.173984        0.769692       -0.812163
H           0.859491       -0.692224        0.387314
C           1.455367       -0.711240        0.218576
H          -0.376136        0.136675       -1.294313
C          -0.805056        1.495062       -0.300411
H           0.041541        1.307156        0.225791
C          -1.491385       -0.027531        0.857650
H           0.640483        1.286667        0.609670
C          -1.112615        0.352747        0.052828
H          -1.403784       -0.689254        0.232503
H          -0.768520       -0.835789       -1.916658
16
reaction_000_gen_9_frame_0161
H          -1.223938        0.874148       -1.726750
C           0.628421       -2.698469        0.884978
H           0.672822       -1.076506        1.006874
C           1.883658        0.172083        0.674825
H          -0.381097        0.406322        0.759302
H           1.187083        0.888875       -0.720434
H           0.908847       -0.723897        0.396243
C           1.560000       -0.849702        0.394840
H          -0.252687        0.115019       -1.391879
C          -0.763322        1.494042       -0.155685
H           0.040064        1.300292        0.253303
C          -1.526142       -0.109834        0.810953
H           0.450065        1.314248        0.471225
C          -1.059263        0.310247        0.076978
H          -1.301063       -0.613954        0.220675
H          -0.823448       -0.802914       -1.955448
16
reaction_000_gen_9_frame_0162
H          -1.198553        0.882670       -1.756303
C           0.436402       -2.812388        0.820616
H           0.712377       -0.949106        1.076010
C           1.934513        0.163539        0.814271
H          -0.424234        0.319380        0.724248
H           1.140308        0.941385       -0.615776
H           0.972772       -0.754805        0.401613
C           1.357973       -0.946636        0.391414
H          -0.333648        0.320613       -1.442333
C          -0.780969        1.429971       -0.079760
H           0.020060        1.379097        0.199384
C          -1.504866       -0.263862        0.792527
H           0.421498        1.363979        0.388029
C          -0.840597        0.346508        0.082987
H          -1.031513       -0.528299        0.066803
H          -0.881525       -0.892046       -1.863730
16
reaction_000_gen_9_frame_0163
H          -1.138679        0.967223       -1.724347
C           0.459065       -2.725775        0.977924
H           0.782790       -0.982244        0.967182
C           1.836606        0.209939        0.882756
H          -0.358440        0.425527        0.527498
H           1.147610        0.956935       -0.654207
H           0.827918       -0.755859        0.386505
C           1.069147       -1.056346        0.322033
H          -0.331727        0.271160       -1.316722
C          -0.767868        1.294579        0.007707
H           0.248640        1.416355        0.205658
C          -1.339503       -0.357746        0.865647
H           0.438551        1.265482        0.402292
C          -0.946540        0.283696        0.076114
H          -1.003673       -0.359187        0.013485
H          -0.923897       -0.853738       -1.939523
16
reaction_000_gen_9_frame_0164
H          -0.991134        1.070429       -1.571576
C           0.512442       -2.825804        0.937838
H           0.636696       -1.096407        0.887933
C           1.732379        0.311370        0.653967
H          -0.402992        0.481194        0.756608
H           1.165210        0.980542       -0.711804
H           0.749170       -0.678716        0.193202
C           1.127432       -1.078055        0.412372
H          -0.405331        0.295967       -1.327359
C          -0.608000        1.310387       -0.015609
H           0.122631        1.295483        0.117277
C          -1.277881       -0.235330        1.028063
H           0.484328        1.199242        0.431867
C          -0.747104        0.245911        0.089051
H          -1.063393       -0.449201       -0.111775
H          -1.034454       -0.827012       -1.770056
16
reaction_000_gen_9_frame_0165
H          -0.862447        1.097481       -1.544772
C           0.527110       -2.939649        1.004375
H           0.518049       -1.059752        0.914249
C           1.706903        0.251669        0.661582
H          -0.340119        0.552618        0.696165
H           1.245283        0.948079       -0.832898
H           0.699322       -0.660683        0.310881
C           1.086609       -1.094018        0.446076
H          -0.274783        0.343872       -1.397596
C          -0.854758        1.302206       -0.006313
H           0.005225        1.382554        0.070917
C          -1.472325       -0.288251        1.031705
H           0.632565        1.129843        0.409705
C          -0.686460        0.382126        0.011038
H          -1.054924       -0.549557       -0.097284
H          -0.875250       -0.798539       -1.677832
16
reaction_000_gen_9_frame_0166
H          -0.853015        1.222179       -1.557426
C           0.434641       -2.814397        1.020514
H           0.588159       -1.107027        1.071550
C           1.931732        0.247635        0.787795
H          -0.566976        0.538403        0.534419
H           1.303326        0.785480       -0.928018
H           0.673626       -0.738306        0.270374
C           1.004469       -1.068622        0.479325
H          -0.285625        0.505434       -1.340352
C          -0.827456        1.250782       -0.116789
H          -0.001893        1.403299        0.121645
C          -1.582337       -0.317215        0.978553
H           0.700264        1.108079        0.409668
C          -0.630185        0.321060        0.184814
H          -1.147387       -0.559706       -0.262213
H          -0.741343       -0.777080       -1.653858
16
reaction_000_gen_9_frame_0167
H          -0.864953        1.099697       -1.472948
C           0.349203       -2.736104        1.046975
H           0.529328       -1.076075        1.011136
C           2.052244        0.288859        0.876401
H          -0.313599        0.352338        0.474249
H           1.218057        0.616396       -0.833798
H           0.637233       -0.682485        0.320752
C           1.011332       -1.181626        0.530323
H          -0.120257        0.596595       -1.208978
C          -0.697384        1.397991       -0.145703
H          -0.176666        1.532167        0.055187
C          -1.498902       -0.258548        0.981411
H           0.707230        1.019713        0.513620
C          -0.818102        0.454942        0.107556
H          -1.301980       -0.551600       -0.351526
H          -0.712784       -0.872263       -1.904656
16
reaction_000_gen_9_frame_0168
H          -0.787270        0.938214       -1.374189
C           0.434691       -2.750847        0.976242
H           0.409352       -0.964397        0.974399
C           1.983328        0.328461        0.967870
H          -0.282467        0.459884        0.446760
H           1.228294        0.674326       -0.773659
H           0.538957       -0.699691        0.332308
C           0.993777       -1.121219        0.591780
H          -0.211744        0.717378       -1.193631
C          -0.654187        1.219876       -0.321308
H          -0.302373        1.434819       -0.000389
C          -1.385769       -0.276086        1.043946
H           0.828545        0.941260        0.488427
C          -0.616340        0.497470        0.090371
H          -1.411189       -0.545799       -0.302839
H          -0.765605       -0.853649       -1.946088
16
reaction_000_gen_9_frame_0169
H          -0.925093        0.960255       -1.259388
C           0.451984       -2.675754        1.001606
H           0.300599       -0.965956        1.080077
C           2.159664        0.273182        0.795215
H          -0.231722        0.428141        0.543622
H           1.259494        0.658980       -0.816545
H           0.432941       -0.767183        0.328854
C           0.969236       -1.095659        0.596793
H          -0.279787        0.682310       -1.071302
C          -0.439185        1.304228       -0.426079
H          -0.346955        1.364504        0.029832
C          -1.458849       -0.293167        1.031953
H           0.705833        0.958730        0.506911
C          -0.497230        0.481940        0.021582
H          -1.370048       -0.410990       -0.334615
H          -0.730883       -0.903561       -2.028515
16
reaction_000_gen_9_frame_0170
H          -0.858115        0.970103       -1.027992
C           0.535552       -2.631987        0.876200
H           0.310446       -1.123236        1.037325
C           1.936944        0.286693        0.644582
H          -0.231430        0.377264        0.663701
H           1.302768        0.760698       -0.728150
H           0.265157       -0.798725        0.443555
C           0.892640       -1.086630        0.425138
H          -0.213692        0.447400       -0.880746
C          -0.378331        1.385313       -0.553190
H          -0.470700        1.434973        0.042457
C          -1.366678       -0.376066        1.058840
H           0.671239        1.005659        0.588203
C          -0.457917        0.651013       -0.158785
H          -1.201483       -0.381836       -0.402615
H          -0.736399       -0.920637       -2.028522
16
reaction_000_gen_9_frame_0171
H          -1.023346        0.947532       -0.997563
C           0.511658       -2.669166        0.933016
H           0.496861       -1.420866        1.014816
C           1.973194        0.325424        0.581129
H          -0.284302        0.272647        0.505250
H           1.328881        0.743603       -0.876128
H           0.279051       -0.761593        0.655751
C           0.814741       -0.951019        0.458641
H          -0.244551        0.642830       -0.818417
C          -0.450581        1.427423       -0.629503
H          -0.441711        1.556504        0.167482
C          -1.388672       -0.443384        0.913381
H           0.778619        1.115571        0.662386
C          -0.458936        0.556950       -0.063093
H          -1.290601       -0.540246       -0.580763
H          -0.600306       -0.802211       -1.926386
16
reaction_000_gen_9_frame_0172
H          -0.935020        1.029903       -1.118723
C           0.654441       -2.723593        0.982157
H           0.574203       -1.390413        1.016338
C           2.002575        0.328072        0.699176
H          -0.387696        0.318548        0.551567
H           1.286265        0.623747       -0.880802
H           0.254668       -0.878498        0.808166
C           0.768282       -0.984201        0.388525
H          -0.306469        0.563157       -0.744066
C          -0.654180        1.427198       -0.691538
H          -0.485860        1.574659        0.005579
C          -1.184228       -0.365618        0.844184
H           0.744617        1.032680        0.640275
C          -0.418032        0.561792        0.009985
H          -1.239410       -0.415109       -0.594100
H          -0.674156       -0.702322       -1.916722
16
reaction_000_gen_9_frame_0173
H          -1.006664        1.023322       -1.170233
C           0.884464       -2.719207        0.582187
H           0.499660       -1.274769        1.101427
C           2.108334        0.446499        0.713773
H          -0.515977        0.359328        0.398525
H           1.151560        0.584133       -0.738181
H           0.155302       -0.843088        0.884226
C           0.791981       -1.057564        0.383602
H          -0.243089        0.506444       -0.691800
C          -0.877395        1.346418       -0.615063
H          -0.585183        1.457358       -0.161580
C          -0.949267       -0.373239        1.055365
H           0.610889        1.109755        0.606593
C          -0.224584        0.506594       -0.163839
H          -1.208142       -0.263125       -0.378983
H          -0.591888       -0.808859       -1.806018
16
reaction_000_gen_9_frame_0174
H          -0.927495        1.123631       -0.930979
C           0.993960       -2.715167        0.552496
H           0.497305       -1.213501        1.090304
C           2.177185        0.613644        0.570965
H          -0.680750        0.449686        0.390069
H           1.136836        0.478257       -0.748147
H           0.249064       -0.897624        0.856816
C           0.697631       -1.035385        0.465133
H          -0.392816        0.518041       -0.878680
C          -0.904734        1.142297       -0.495458
H          -0.579333        1.527532       -0.126882
C          -0.813168       -0.431385        1.128526
H           0.550315        1.221426        0.485342
C          -0.132486        0.476238       -0.242378
H          -1.192694       -0.284005       -0.407884
H          -0.678820       -0.973684       -1.709243
16
reaction_000_gen_9_frame_0175
H          -0.876060        1.061238       -1.009180
C           1.076752       -2.705781        0.491686
H           0.427506       -1.181269        1.105249
C           2.164373        0.518466        0.594526
H          -0.819171        0.446709        0.418102
H           1.195372        0.619811       -0.454799
H           0.353068       -0.775114        1.011144
C           0.581882       -1.218413        0.338514
H          -0.315174        0.614169       -0.868036
C          -0.986045        1.263507       -0.461613
H          -0.514798        1.452395       -0.115629
C          -0.648845       -0.375701        0.963636
H           0.521278        1.183125        0.518699
C          -0.152672        0.428123       -0.483594
H          -1.284834       -0.248942       -0.363103
H          -0.722633       -1.082321       -1.685601
16
reaction_000_gen_9_frame_0176
H          -0.806838        1.136276       -1.064077
C           1.102943       -2.673243        0.472550
H           0.495367       -1.234532        1.131425
C           2.179177        0.514449        0.822195
H          -0.809621        0.412895        0.380650
H           1.181659        0.595240       -0.374819
H           0.293696       -0.813256        0.944497
C           0.515781       -1.171948        0.336427
H          -0.284836        0.507129       -0.965594
C          -0.940223        1.257637       -0.641378
H          -0.704844        1.510529       -0.113930
C          -0.752519       -0.360719        1.087331
H           0.592604        1.191842        0.631612
C          -0.037384        0.508443       -0.489164
H          -1.222643       -0.279337       -0.371548
H          -0.802318       -1.101404       -1.786175
16
reaction_000_gen_9_frame_0177
H          -0.820023        1.059277       -0.984450
C           1.029864       -2.785222        0.512423
H           0.473672       -1.336889        1.230938
C           2.370274        0.482371        0.683773
H          -0.689422        0.471690        0.321257
H           1.270423        0.761543       -0.440893
H           0.216277       -0.716116        0.956909
C           0.391807       -1.167269        0.286828
H          -0.342788        0.701875       -0.899643
C          -0.928129        1.125216       -0.612393
H          -0.651291        1.443951       -0.082477
C          -0.761619       -0.377741        1.113548
H           0.551441        1.236614        0.609826
C          -0.047078        0.464144       -0.516469
H          -1.194220       -0.261768       -0.262596
H          -0.869187       -1.101675       -1.916581
16
reaction_000_gen_9_frame_0178
H          -0.886256        1.228435       -1.044763
C           0.935698       -3.054932        0.504000
H           0.492415       -1.281275        1.207445
C           2.354309        0.438779        0.813345
H          -0.488600        0.438524        0.157643
H           1.176788        0.877202       -0.490956
H           0.202670       -0.770067        0.864096
C           0.381984       -1.150113        0.301691
H          -0.375016        0.803540       -0.792391
C          -0.988555        0.995065       -0.584605
H          -0.607649        1.513289       -0.034560
C          -0.646205       -0.280466        1.054705
H           0.493650        1.151942        0.730854
C          -0.059865        0.451533       -0.705279
H          -1.035454       -0.266113       -0.301074
H          -0.949915       -1.095342       -1.680151
16
reaction_000_gen_9_frame_0179
H          -0.873188        1.233019       -0.972349
C           0.948487       -3.043420        0.509171
H           0.463101       -1.355021        1.168164
C           2.348077        0.323937        0.804391
H          -0.285645        0.443683        0.138636
H           1.124324        0.874022       -0.513195
H           0.055515       -0.874411        0.737782
C           0.395605       -1.033841        0.180756
H          -0.287296        0.724822       -0.761256
C          -0.948513        1.013134       -0.324616
H          -0.780813        1.665578       -0.132391
C          -0.619552       -0.178063        1.214105
H           0.605428        1.213842        0.674199
C          -0.007958        0.331967       -0.729217
H          -1.015751       -0.192501       -0.387146
H          -1.121820       -1.146749       -1.607033
16
reaction_000_gen_9_frame_0180
H          -0.880742        1.244618       -0.876230
C           0.879824       -3.027683        0.553367
H           0.401868       -1.219211        1.281266
C           2.362342        0.136818        0.660736
H          -0.113765        0.451046        0.244501
H           1.026031        0.892814       -0.589015
H           0.199338       -0.891313        0.814016
C           0.410699       -1.169249       -0.013117
H          -0.200120        0.819775       -0.786203
C          -0.907228        1.122084       -0.312401
H          -0.844817        1.619821       -0.029983
C          -0.729993       -0.162904        1.223806
H           0.568882        1.216184        0.612640
C          -0.001248        0.262404       -0.765351
H          -1.024293       -0.090709       -0.279033
H          -1.146776       -1.204495       -1.738999
16
reaction_000_gen_9_frame_0181
H          -0.642619        1.120110       -0.900202
C           0.867953       -3.100827        0.562173
H           0.434049       -1.322640        1.066221
C           2.312068        0.182073        0.863522
H          -0.168917        0.436375        0.280113
H           1.016158        0.828755       -0.525132
H           0.310239       -0.781266        0.896002
C           0.573008       -1.259963       -0.101033
H          -0.316767        0.801588       -0.677961
C          -0.953486        1.175886       -0.334291
H          -0.860331        1.640771       -0.100732
C          -0.746401       -0.096246        1.206824
H           0.601798        1.242040        0.712299
C          -0.058368        0.314053       -0.993653
H          -1.108385       -0.076401       -0.299206
H          -1.259999       -1.104309       -1.654941
16
reaction_000_gen_9_frame_0182
H          -0.744399        0.947611       -0.854458
C           0.899013       -3.220091        0.600714
H           0.344777       -1.453955        1.027942
C           2.186358        0.318777        0.934012
H          -0.122954        0.507693        0.337947
H           0.931316        0.937693       -0.669478
H           0.298582       -0.802802        0.811662
C           0.739337       -1.316350       -0.121633
H          -0.212792        0.890126       -0.631295
C          -0.830389        1.205014       -0.307550
H          -0.800718        1.761775       -0.142593
C          -0.825556       -0.107859        1.166901
H           0.481599        1.091921        0.766251
C           0.003911        0.322750       -0.934459
H          -1.117638       -0.039081       -0.235525
H          -1.230448       -1.043222       -1.748438
16
reaction_000_gen_9_frame_0183
H          -0.702421        0.898622       -0.805446
C           0.958814       -3.259405        0.469295
H           0.184049       -1.554096        1.058153
C           2.138488        0.252748        0.862390
H          -0.040818        0.578294        0.249125
H           0.914011        0.894841       -0.581310
H           0.487609       -0.859945        0.738235
C           0.755019       -1.330443       -0.167068
H          -0.203972        0.934430       -0.683738
C          -0.586042        1.288215       -0.382363
H          -0.784178        1.718866       -0.226558
C          -0.875221       -0.123411        1.231045
H           0.430905        1.252173        0.834197
C          -0.157402        0.393491       -0.797994
H          -1.245032       -0.034304       -0.115786
H          -1.273807       -1.050076       -1.682177
16
reaction_000_gen_9_frame_0184
H          -0.783576        1.074494       -0.898254
C           0.938039       -3.398554        0.454006
H           0.204668       -1.496612        0.894821
C           2.043154        0.276176        0.840817
H           0.050792        0.550845        0.318287
H           0.841356        0.859048       -0.602000
H           0.583211       -0.927793        0.837908
C           0.764352       -1.287740       -0.074217
H          -0.197931        1.067332       -0.598325
C          -0.495557        1.330657       -0.359650
H          -0.800408        1.499202       -0.077113
C          -0.656855       -0.108752        1.233081
H           0.588772        1.483975        0.879239
C          -0.292961        0.438672       -0.839222
H          -1.425212       -0.300497       -0.233851
H          -1.361844       -1.060454       -1.775527
16
reaction_000_gen_9_frame_0185
H          -0.713478        0.972889       -0.973702
C           0.818153       -3.473493        0.476908
H           0.248418       -1.506922        0.845155
C           1.897226        0.339176        0.825496
H           0.082329        0.508100        0.351811
H           0.849120        1.045957       -0.760300
H           0.367677       -1.185086        0.830783
C           0.922578       -1.234497       -0.124075
H          -0.232952        1.166051       -0.561524
C          -0.419465        1.327875       -0.445287
H          -0.621406        1.566266        0.056892
C          -0.771762       -0.046013        1.377323
H           0.657832        1.458040        0.898232
C          -0.256963        0.322214       -0.774310
H          -1.457567       -0.230299       -0.282653
H          -1.369740       -1.030258       -1.740748
16
reaction_000_gen_9_frame_0186
H          -0.729002        1.051422       -0.927770
C           0.889344       -3.418616        0.546043
H           0.333964       -1.466010        1.061466
C           1.958236        0.236324        0.803788
H           0.091011        0.540620        0.523972
H           0.874667        1.154315       -0.592609
H           0.412077       -1.261561        0.837471
C           0.858011       -1.154878       -0.023101
H          -0.348953        1.091004       -0.748564
C          -0.479741        1.145224       -0.578321
H          -0.485786        1.584641       -0.134254
C          -0.852958       -0.119672        1.310113
H           0.715802        1.443974        0.915390
C          -0.322300        0.302521       -1.024256
H          -1.446374       -0.179267       -0.210828
H          -1.467998       -0.950044       -1.758540
16
reaction_000_gen_9_frame_0187
H          -0.770170        1.117447       -0.863089
C           1.005291       -3.617327        0.692790
H           0.541421       -1.452653        0.997369
C           2.190541        0.315957        0.699796
H           0.043168        0.573347        0.550631
H           0.891232        1.116913       -0.540609
H           0.388074       -1.192617        0.891419
C           0.694450       -1.059055       -0.045271
H          -0.414997        1.085060       -0.793732
C          -0.626608        1.216730       -0.577704
H          -0.573637        1.503074       -0.215230
C          -0.940895        0.016691        1.097286
H           0.594839        1.396864        0.801111
C          -0.282659        0.216788       -0.819057
H          -1.351945       -0.375236       -0.186108
H          -1.388107       -0.861984       -1.689599
16
reaction_000_gen_9_frame_0188
H          -0.672512        1.056647       -0.927416
C           0.964189       -3.567504        0.639460
H           0.545867       -1.323475        0.881088
C           2.049484        0.164666        0.755323
H           0.164390        0.449444        0.426539
H           0.812081        1.168548       -0.485994
H           0.678358       -1.066879        0.983829
C           0.722151       -0.999395       -0.030428
H          -0.403566        1.041923       -0.659723
C          -0.637662        1.136445       -0.562031
H          -0.768175        1.504590       -0.201144
C          -0.859635       -0.002677        1.095493
H           0.569363        1.395002        0.597097
C          -0.297551        0.263916       -0.887649
H          -1.431974       -0.397317       -0.119685
H          -1.434810       -0.823934       -1.504760
16
reaction_000_gen_9_frame_0189
H          -0.595815        1.025967       -1.014357
C           0.953208       -3.429289        0.685420
H           0.664744       -1.396972        0.887009
C           2.004141        0.207674        0.848593
H           0.201582        0.526054        0.373442
H           0.782534        1.011390       -0.538086
H           0.583011       -0.816704        1.040894
C           0.772023       -1.007888        0.029483
H          -0.379103        1.093495       -0.754514
C          -0.678211        1.183514       -0.491776
H          -0.743199        1.523769       -0.347218
C          -1.026581        0.077924        1.061243
H           0.528931        1.228290        0.576104
C          -0.155801        0.139800       -0.829103
H          -1.498540       -0.519645       -0.071456
H          -1.412925       -0.847378       -1.455677
16
reaction_000_gen_9_frame_0190
H          -0.604039        1.069972       -1.015260
C           0.969845       -3.364428        0.549782
H           0.498910       -1.424125        0.787016
C           1.989021        0.168361        1.031301
H           0.329785        0.582708        0.449733
H           0.643541        1.156086       -0.655175
H           0.537538       -0.837663        1.108665
C           0.859814       -0.982104        0.117143
H          -0.155772        1.195726       -0.631855
C          -0.838797        1.259675       -0.365189
H          -0.682348        1.247867       -0.390714
C          -0.988347        0.167648        1.091061
H           0.530976        1.138810        0.454955
C          -0.232751        0.231625       -0.888871
H          -1.494259       -0.670333       -0.149087
H          -1.363117       -0.939825       -1.493504
16
reaction_000_gen_9_frame_0191
H          -0.505642        1.207328       -1.084940
C           1.113910       -3.290156        0.452837
H           0.689871       -1.423306        0.781331
C           2.147539        0.191233        1.033713
H           0.242794        0.661791        0.507835
H           0.699119        1.235010       -0.671535
H           0.672551       -0.894062        1.058560
C           0.916394       -0.971329        0.110071
H          -0.177155        1.171813       -0.548211
C          -1.028979        1.135597       -0.258828
H          -0.931326        1.166972       -0.413514
C          -1.058547        0.225293        1.140513
H           0.286648        1.130205        0.365679
C          -0.228071        0.134407       -0.774556
H          -1.590408       -0.714722       -0.201617
H          -1.248696       -0.966073       -1.497339
16
reaction_000_gen_9_frame_0192
H          -0.460315        1.136220       -1.172740
C           1.039364       -3.258955        0.461186
H           0.790298       -1.526045        0.964301
C           2.127652        0.322118        1.089931
H           0.257081        0.670273        0.460726
H           0.751152        1.185035       -0.711438
H           0.769665       -1.012486        1.228824
C           0.792189       -1.017490        0.005861
H          -0.399842        1.287807       -0.530096
C          -1.147783        1.169949       -0.164924
H          -0.967115        1.068277       -0.251004
C          -0.897021        0.040872        0.961353
H           0.270550        1.121648        0.325522
C          -0.169110        0.289637       -0.790060
H          -1.569012       -0.534786       -0.352185
H          -1.187752       -0.942074       -1.525255
16
reaction_000_gen_9_frame_0193
H          -0.398795        1.003239       -1.105157
C           1.115973       -3.268701        0.415567
H           0.820849       -1.562761        0.901275
C           2.118919        0.478292        1.060050
H           0.296769        0.591584        0.413667
H           0.741691        1.165710       -0.760610
H           0.671899       -1.004491        1.332192
C           0.881190       -1.073610        0.064739
H          -0.496141        1.271744       -0.584065
C          -1.206290        1.222831       -0.233016
H          -1.067941        1.064975       -0.148611
C          -0.967052        0.054028        0.783596
H           0.361988        1.101699        0.273747
C          -0.110673        0.336254       -0.878458
H          -1.583235       -0.346442       -0.211571
H          -1.179151       -1.034351       -1.323345
16
reaction_000_gen_9_frame_0194
H          -0.368351        1.012326       -1.107377
C           1.122859       -3.267804        0.480089
H           1.010794       -1.525159        0.948449
C           2.090021        0.439029        1.013297
H           0.312668        0.615757        0.464652
H           0.812177        1.009995       -0.677221
H           0.693094       -0.910495        1.261225
C           0.850847       -0.854659       -0.056454
H          -0.545392        1.119357       -0.596512
C          -1.300171        1.222363       -0.220353
H          -0.907960        1.094718       -0.122857
C          -1.131037        0.060368        0.701043
H           0.345639        1.036741        0.226482
C          -0.068418        0.405735       -0.815709
H          -1.738369       -0.298668       -0.367298
H          -1.178401       -1.159604       -1.131455
16
reaction_000_gen_9_frame_0195
H          -0.323946        1.009851       -1.137645
C           1.119759       -3.247623        0.492501
H           0.882273       -1.631556        0.912212
C           2.019716        0.347296        1.139426
H           0.269261        0.727437        0.477303
H           0.875188        1.066827       -0.696891
H           0.893479       -0.846501        1.129310
C           0.855545       -0.758147        0.045523
H          -0.583236        1.259082       -0.578278
C          -1.146621        1.265336       -0.237095
H          -0.978854        1.054057       -0.303317
C          -1.162890       -0.100734        0.779725
H           0.247087        0.883173        0.177467
C          -0.134838        0.375909       -0.670704
H          -1.673933       -0.277484       -0.488794
H          -1.157991       -1.126924       -1.040745
16
reaction_000_gen_9_frame_0196
H          -0.316275        0.951171       -1.011643
C           1.240266       -3.160719        0.505422
H           0.828956       -1.816466        0.966673
C           2.024288        0.352866        1.108039
H           0.347921        0.771209        0.509168
H           0.852761        1.088930       -0.834140
H           0.857626       -0.795540        1.234808
C           0.901193       -0.810176        0.028032
H          -0.685490        1.076011       -0.663380
C          -1.140158        1.259749       -0.171301
H          -0.853842        1.277128       -0.322559
C          -1.181078       -0.074477        0.845398
H           0.261358        0.830976        0.153152
C          -0.183709        0.453687       -0.708752
H          -1.770381       -0.331630       -0.458095
H          -1.183434       -1.072720       -1.180823
16
reaction_000_gen_9_frame_0197
H          -0.407785        0.647796       -0.917493
C           1.280214       -3.084081        0.438454
H           0.921183       -1.819650        0.863481
C           1.884991        0.331236        1.257551
H           0.384332        0.895693        0.626664
H           0.915041        1.224487       -0.953840
H           0.932854       -0.851991        1.217391
C           0.833163       -0.785446       -0.007441
H          -0.760043        0.943576       -0.670701
C          -1.209995        1.192762       -0.263698
H          -0.737665        1.346669       -0.287187
C          -1.015984       -0.052398        0.876153
H           0.183913        0.890218        0.200242
C          -0.219008        0.536166       -0.630957
H          -1.771552       -0.267544       -0.541130
H          -1.213658       -1.147492       -1.207488
16
reaction_000_gen_9_frame_0198
H          -0.403880        0.666346       -0.880451
C           1.233890       -3.052272        0.569200
H           0.954096       -1.638828        0.626363
C           1.872570        0.205800        1.351597
H           0.468274        0.851972        0.752706
H           0.906555        1.162689       -1.011885
H           0.919959       -0.767356        1.164032
C           0.883925       -0.944687       -0.061295
H          -0.685593        1.045447       -0.653511
C          -1.268171        1.047558       -0.341134
H          -0.731141        1.374965       -0.364389
C          -1.023221       -0.051046        0.997378
H           0.103100        1.019772        0.179934
C          -0.182325        0.546838       -0.617971
H          -1.840205       -0.286162       -0.493902
H          -1.207834       -1.181037       -1.216670
16
reaction_000_gen_9_frame_0199
H          -0.363327        0.823244       -0.853206
C           1.222364       -2.987262        0.561644
H           0.962507       -1.599073        0.744248
C           2.046365        0.131646        1.293364
H           0.516750        0.818922        0.761267
H           0.787979        1.103271       -1.002962
H           0.909597       -0.818697        1.133234
C           0.705247       -0.873200       -0.071659
H          -0.613886        0.944238       -0.706604
C          -1.378533        0.965136       -0.280285
H          -0.642857        1.318378       -0.242395
C          -0.917920        0.036792        0.917102
H           0.236905        1.154147        0.067855
C          -0.242646        0.436104       -0.810616
H          -1.814293       -0.296199       -0.305835
H          -1.414252       -1.157447       -1.205152
16
reaction_000_gen_9_frame_0200
H          -0.376358        0.759583       -0.836523
C           1.201391       -3.000784        0.458797
H           0.887089       -1.668106        0.834810
C           2.036370        0.067886        1.381583
H           0.570825        0.730953        0.836223
H           0.715031        1.080523       -1.071599
H           0.949926       -0.798834        1.127146
C           0.751893       -0.874165       -0.051126
H          -0.514608        0.925418       -0.886480
C          -1.442382        0.967719       -0.353717
H          -0.710102        1.410558       -0.226146
C          -0.854688       -0.048763        0.954322
H           0.174059        1.145098       -0.004320
C          -0.266883        0.444916       -0.719740
H          -1.767467       -0.084137       -0.258851
H          -1.354098       -1.057864       -1.184380
16
reaction_000_gen_9_frame_0201
H          -0.300306        0.689340       -0.855359
C           1.153025       -3.004045        0.575852
H           0.944013       -1.694910        0.802633
C           2.269482        0.028699        1.371945
H           0.669452        0.730067        0.871468
H           0.581173        1.111505       -1.261836
H           0.971454       -0.697977        1.150513
C           0.728261       -0.808922       -0.045607
H          -0.478999        0.927493       -0.828284
C          -1.429244        0.895753       -0.398270
H          -0.726838        1.399127       -0.306295
C          -1.037594       -0.068904        0.886123
H           0.243087        1.217136       -0.091796
C          -0.347178        0.422852       -0.558335
H          -1.881672       -0.034968       -0.254702
H          -1.358116       -1.112244       -1.058049
16
reaction_000_gen_9_frame_0202
H          -0.292703        0.595488       -0.939328
C           1.173802       -2.875839        0.604704
H           1.101143       -1.690333        0.753821
C           2.265463        0.139033        1.389135
H           0.696181        0.459029        0.936935
H           0.703911        1.223466       -1.308000
H           0.840731       -0.660758        1.185136
C           0.660701       -0.835044       -0.176801
H          -0.456494        0.867798       -0.631365
C          -1.386201        0.981646       -0.252275
H          -0.947001        1.534331       -0.403729
C          -0.982343       -0.155764        0.861481
H           0.237662        1.236484       -0.055158
C          -0.280678        0.429535       -0.609693
H          -1.867179       -0.154845       -0.304217
H          -1.466993       -1.094228       -1.050647
16
reaction_000_gen_9_frame_0203
H          -0.317376        0.494838       -0.899633
C           1.327685       -2.730290        0.853671
H           0.977885       -1.729844        0.734539
C           2.204787        0.126146        1.345989
H           0.718996        0.365767        0.906418
H           0.676930        1.113337       -1.357938
H           0.715512       -0.693144        1.231913
C           0.766824       -0.812963       -0.194170
H          -0.343325        0.905838       -0.657203
C          -1.281157        0.927323       -0.339689
H          -0.964761        1.575837       -0.416173
C          -1.027297       -0.202337        0.808377
H           0.311336        1.233530       -0.099813
C          -0.509640        0.598208       -0.646632
H          -1.843299       -0.129470       -0.266888
H          -1.413100       -1.042776       -1.002769
16
reaction_000_gen_9_frame_0204
H          -0.389638        0.447765       -0.936964
C           1.281206       -2.600415        0.873761
H           1.000735       -1.737658        0.682327
C           2.052967        0.197602        1.278572
H           0.718791        0.139099        0.898086
H           0.708135        1.140645       -1.247465
H           0.752434       -0.692442        1.389942
C           0.783883       -0.716035       -0.278598
H          -0.323959        0.907443       -0.609120
C          -1.129341        0.899788       -0.375808
H          -0.982193        1.382077       -0.656327
C          -1.005414       -0.108898        0.863708
H           0.400170        1.281688       -0.003437
C          -0.692175        0.668654       -0.629372
H          -1.599382       -0.118673       -0.220296
H          -1.576217       -1.090640       -1.029010
16
reaction_000_gen_9_frame_0205
H          -0.308986        0.565051       -1.004282
C           1.212184       -2.890064        0.931750
H           1.195229       -1.737156        0.598728
C           2.005923        0.194018        1.322698
H           0.757582        0.167448        0.838578
H           0.733838        1.217376       -1.268729
H           0.800994       -0.817804        1.506598
C           0.868089       -0.643121       -0.423327
H          -0.213599        1.004536       -0.472784
C          -1.349441        0.901890       -0.408436
H          -1.233721        1.396609       -0.663664
C          -0.997974       -0.193489        0.857196
H           0.518088        1.494151        0.032047
C          -0.710378        0.696314       -0.658351
H          -1.683353       -0.242356       -0.263442
H          -1.594475       -1.113402       -0.924579
16
reaction_000_gen_9_frame_0206
H          -0.296215        0.507892       -0.950540
C           1.336132       -3.024358        0.909192
H           1.228698       -1.601360        0.679531
C           1.991064        0.228639        1.302246
H           0.711221        0.122054        0.679360
H           0.671279        1.376300       -1.348394
H           0.879753       -0.739911        1.451602
C           0.758031       -0.745736       -0.482834
H          -0.133212        1.020124       -0.574839
C          -1.225492        0.890944       -0.379872
H          -1.203189        1.254867       -0.534785
C          -1.029300       -0.217734        0.874422
H           0.501406        1.602824        0.029952
C          -0.743872        0.744811       -0.680764
H          -1.639246       -0.273839       -0.138546
H          -1.807057       -1.145517       -0.835731
16
reaction_000_gen_9_frame_0207
H          -0.390905        0.465683       -0.957150
C           1.435804       -3.029467        0.926765
H           1.047171       -1.540440        0.655528
C           1.919801        0.364798        1.399981
H           0.686585        0.164606        0.648154
H           0.792352        1.170157       -1.228057
H           0.833145       -0.777232        1.427676
C           1.026189       -0.690562       -0.587441
H          -0.242833        1.026893       -0.469018
C          -1.081786        0.786325       -0.429768
H          -1.219283        1.363326       -0.571237
C          -1.002859       -0.164493        0.927444
H           0.270973        1.450188        0.008827
C          -0.607437        0.890310       -0.722569
H          -1.656080       -0.206029       -0.125976
H          -1.810836       -1.274062       -0.903157
16
reaction_000_gen_9_frame_0208
H          -0.139320        0.561288       -1.139136
C           1.337987       -2.969777        0.752324
H           0.981212       -1.423058        0.666274
C           1.792902        0.357709        1.261842
H           0.653567        0.090516        0.683374
H           0.886948        1.023475       -1.206215
H           0.670258       -0.678197        1.363857
C           1.281934       -0.737961       -0.520463
H          -0.098723        0.948099       -0.470737
C          -1.096051        0.841957       -0.253009
H          -1.190287        1.248235       -0.533226
C          -1.090622       -0.149220        1.120633
H           0.118901        1.507239        0.109492
C          -0.671071        0.942483       -0.867711
H          -1.635989       -0.380962       -0.020271
H          -1.801647       -1.181827       -0.947028
16
reaction_000_gen_9_frame_0209
H          -0.122972        0.687419       -1.165967
C           1.390960       -2.764797        0.728215
H           0.958683       -1.395451        0.651310
C           1.846482        0.371918        1.311026
H           0.720980        0.181144        0.769131
H           0.974184        0.902056       -1.297117
H           0.512434       -0.714514        1.206898
C           1.356537       -0.738246       -0.541195
H          -0.141520        0.895978       -0.294764
C          -1.146569        0.828663       -0.190080
H          -1.376966        0.964121       -0.519694
C          -1.066417       -0.152266        0.987337
H           0.182541        1.558001        0.137706
C          -0.685479        0.955417       -0.827380
H          -1.604187       -0.466890       -0.014184
H          -1.798694       -1.112554       -0.941241
16
reaction_000_gen_9_frame_0210
H          -0.143867        0.809669       -1.158770
C           1.254694       -2.853134        0.760142
H           0.958691       -1.412462        0.500866
C           1.815278        0.402375        1.274179
H           0.690400        0.202446        0.853238
H           1.108461        0.698048       -1.410909
H           0.509342       -0.826129        1.185586
C           1.330057       -0.698485       -0.587918
H          -0.213851        0.847227       -0.085019
C          -1.147349        0.831094       -0.098078
H          -1.346615        1.156474       -0.460888
C          -1.060586       -0.240419        0.910479
H           0.228010        1.624494        0.168636
C          -0.589531        1.015965       -0.946958
H          -1.537536       -0.448494        0.034424
H          -1.855598       -1.108668       -0.939009
16
reaction_000_gen_9_frame_0211
H          -0.159818        0.754524       -1.187842
C           1.229540       -2.822280        0.781218
H           0.963830       -1.567523        0.409867
C           1.757446        0.354690        1.279022
H           0.657424        0.281095        0.648524
H           1.138752        0.625437       -1.391863
H           0.570454       -0.936381        1.197456
C           1.150866       -0.754963       -0.726231
H          -0.158570        0.960286       -0.022419
C          -1.023052        0.798657       -0.055167
H          -1.315750        1.318105       -0.397059
C          -1.238127       -0.222718        0.937774
H           0.317669        1.802545        0.349512
C          -0.718360        1.058239       -1.092976
H          -1.528742       -0.545615        0.255952
H          -1.643561       -1.104097       -0.985768
16
reaction_000_gen_9_frame_0212
H          -0.113117        0.740868       -1.380823
C           1.139060       -2.987969        0.805919
H           0.879194       -1.549387        0.256822
C           1.717222        0.350363        1.362351
H           0.681408        0.147876        0.832501
H           1.142805        0.569413       -1.348481
H           0.574103       -0.988382        1.030894
C           1.173512       -0.756075       -0.622338
H          -0.117133        1.072918        0.116734
C          -0.997404        0.844773       -0.013241
H          -1.359077        1.349050       -0.409197
C          -1.196363       -0.251443        0.943003
H           0.315702        1.806973        0.404467
C          -0.768333        1.219581       -1.141541
H          -1.487340       -0.499618        0.209917
H          -1.584241       -1.068943       -1.046987
16
reaction_000_gen_9_frame_0213
H          -0.140994        0.729336       -1.297842
C           1.245728       -2.900806        0.655998
H           0.920784       -1.405492        0.393785
C           1.828521        0.302213        1.347456
H           0.542367        0.015019        0.848234
H           0.977065        0.536333       -1.463260
H           0.462789       -1.072999        1.003701
C           1.046090       -0.581114       -0.655278
H          -0.064629        0.862532        0.109480
C          -0.884243        0.939032        0.058398
H          -1.224797        1.298262       -0.395223
C          -1.208975       -0.155957        0.931390
H           0.377852        1.759007        0.497502
C          -0.854391        1.359056       -1.237831
H          -1.334981       -0.419449        0.156562
H          -1.688184       -1.264973       -0.953071
16
reaction_000_gen_9_frame_0214
H          -0.041610        0.654301       -1.376193
C           1.212479       -2.956392        0.547408
H           0.809047       -1.444529        0.368136
C           1.762369        0.300683        1.403467
H           0.487051        0.174045        0.965874
H           1.072612        0.586910       -1.568770
H           0.398623       -1.042961        1.115744
C           1.075912       -0.645491       -0.808149
H          -0.026078        0.867360        0.147243
C          -0.864151        1.017778        0.108954
H          -1.433707        1.319886       -0.284370
C          -1.197521       -0.184111        1.079822
H           0.521013        1.689040        0.286833
C          -0.797535        1.350393       -1.343632
H          -1.245560       -0.431921        0.204540
H          -1.732944       -1.254990       -0.846909
16
reaction_000_gen_9_frame_0215
H           0.033604        0.762118       -1.382101
C           1.094454       -2.956785        0.547728
H           0.740919       -1.291914        0.389804
C           1.615119        0.291511        1.387738
H           0.352141        0.194178        1.022414
H           1.181258        0.545915       -1.613111
H           0.566294       -0.972087        1.079105
C           1.082771       -0.827856       -0.711174
H           0.007386        0.863682        0.274293
C          -0.783132        1.027988        0.093595
H          -1.519272        1.201248       -0.367237
C          -1.309246       -0.263917        1.094224
H           0.594916        1.508991        0.268386
C          -0.753956        1.403149       -1.468353
H          -1.260115       -0.417824        0.222094
H          -1.643141       -1.068395       -0.837405
16
reaction_000_gen_9_frame_0216
H          -0.093519        0.852146       -1.413794
C           1.109201       -3.018885        0.661930
H           0.865596       -1.286421        0.349454
C           1.641426        0.273488        1.316058
H           0.443355       -0.015848        1.065053
H           1.036597        0.662606       -1.527770
H           0.558697       -1.004535        1.028352
C           1.041231       -0.933810       -0.822851
H           0.070732        0.927040        0.331277
C          -0.683072        1.062810        0.005729
H          -1.568856        1.187419       -0.265842
C          -1.188215       -0.214031        1.159442
H           0.594162        1.601709        0.280700
C          -0.946295        1.391875       -1.507689
H          -1.322892       -0.526926        0.098816
H          -1.558149       -0.958638       -0.758864
16
reaction_000_gen_9_frame_0217
H          -0.209940        0.855587       -1.411547
C           0.935511       -3.008124        0.533949
H           1.029722       -1.396379        0.384193
C           1.732560        0.249902        1.313133
H           0.488185        0.038366        1.164608
H           0.981775        0.621310       -1.517793
H           0.454004       -1.035284        0.938920
C           1.039803       -0.824742       -0.909620
H           0.020981        0.858870        0.317044
C          -0.568319        0.928627       -0.006122
H          -1.540564        1.210732       -0.158352
C          -1.161767       -0.177133        1.142632
H           0.568983        1.555229        0.388830
C          -0.851740        1.512573       -1.375515
H          -1.378120       -0.430384        0.035064
H          -1.541073       -0.959151       -0.839426
16
reaction_000_gen_9_frame_0218
H          -0.300489        0.800023       -1.478341
C           0.969140       -3.062804        0.421817
H           1.043646       -1.505612        0.399772
C           1.569967        0.423081        1.406547
H           0.482733        0.160709        1.254766
H           0.871537        0.521734       -1.587084
H           0.518918       -0.946152        0.939173
C           1.077003       -0.934699       -0.810778
H           0.015983        0.862183        0.251972
C          -0.433819        0.921541       -0.057124
H          -1.646900        1.163192        0.016823
C          -1.134751       -0.043044        1.014420
H           0.613053        1.636746        0.361992
C          -0.855293        1.572008       -1.294582
H          -1.286213       -0.498182       -0.069489
H          -1.504517       -1.070724       -0.769887
16
reaction_000_gen_9_frame_0219
H          -0.253213        0.838928       -1.401129
C           0.908621       -3.147518        0.448563
H           1.127203       -1.754169        0.333797
C           1.798630        0.475107        1.352432
H           0.294535        0.148502        1.295918
H           0.927790        0.640794       -1.654109
H           0.412709       -1.013560        1.077464
C           1.083696       -1.064498       -0.718809
H           0.169009        0.874768        0.166496
C          -0.417107        1.131632       -0.122262
H          -1.604725        1.037416        0.100229
C          -1.230023        0.077262        0.894087
H           0.625689        1.690181        0.384011
C          -0.949826        1.712350       -1.274189
H          -1.282614       -0.483960       -0.042212
H          -1.610374       -1.163235       -0.840287
16
reaction_000_gen_9_frame_0220
H          -0.256476        0.942829       -1.276526
C           0.930434       -3.276438        0.453926
H           1.317981       -1.710470        0.425958
C           1.773495        0.504397        1.349959
H           0.217019       -0.009454        1.232335
H           0.857805        0.737911       -1.552573
H           0.440953       -1.093722        1.022155
C           1.051179       -1.014424       -0.605466
H           0.177205        0.803132        0.224547
C          -0.628950        1.102413       -0.288775
H          -1.791769        1.132997       -0.104541
C          -1.244293       -0.091130        0.992391
H           0.809072        1.715068        0.325353
C          -1.000570        1.787103       -1.305188
H          -1.177790       -0.484874       -0.112625
H          -1.475297       -1.045337       -0.780930
16
reaction_000_gen_9_frame_0221
H          -0.276618        0.874097       -1.268304
C           1.075988       -3.129788        0.512118
H           1.179334       -1.743840        0.413758
C           1.827147        0.431660        1.417064
H           0.351040       -0.001312        1.136913
H           0.841831        0.691551       -1.539290
H           0.281376       -1.113595        1.175694
C           0.957796       -1.192801       -0.539101
H           0.194257        0.893290        0.190569
C          -0.617177        1.088139       -0.256674
H          -1.836623        1.204815       -0.220883
C          -1.198064       -0.228486        0.958652
H           0.802887        1.836464        0.291473
C          -0.911992        1.814292       -1.250590
H          -1.232672       -0.438668       -0.259044
H          -1.438511       -0.985820       -0.762356
16
reaction_000_gen_9_frame_0222
H          -0.186246        0.793765       -1.484948
C           0.875033       -3.176410        0.615805
H           1.121784       -1.837361        0.574294
C           1.772599        0.458569        1.445688
H           0.425053       -0.150292        1.200744
H           0.818682        0.871823       -1.605365
H           0.557961       -1.040657        1.093367
C           0.936337       -1.230521       -0.560485
H           0.228453        0.942452        0.067365
C          -0.636953        1.234376       -0.303285
H          -1.991617        1.219917       -0.299564
C          -1.191644       -0.295779        1.105563
H           0.877318        1.852544        0.261795
C          -1.032443        1.879500       -1.229320
H          -1.168940       -0.594186       -0.211027
H          -1.405377       -0.927741       -0.670627
16
reaction_000_gen_9_frame_0223
H          -0.095191        0.872946       -1.345173
C           0.861014       -3.176703        0.682759
H           1.256120       -1.817542        0.525825
C           1.677993        0.427522        1.394422
H           0.278052       -0.115379        1.061839
H           0.742159        0.836957       -1.532601
H           0.562601       -1.035914        1.161004
C           1.033410       -1.311020       -0.429125
H           0.198940        0.830029        0.117887
C          -0.757062        1.231107       -0.305798
H          -1.946231        1.206881       -0.402589
C          -1.192898       -0.330327        1.073216
H           0.855080        1.899026        0.282133
C          -0.959155        1.915206       -1.288501
H          -1.092797       -0.615659       -0.201755
H          -1.422035       -0.817130       -0.793543
16
reaction_000_gen_9_frame_0224
H           0.046622        0.773765       -1.260513
C           0.748357       -3.211009        0.690549
H           1.192472       -1.773009        0.614966
C           1.654791        0.516363        1.385868
H           0.193501       -0.151110        1.049737
H           0.718150        0.776370       -1.569830
H           0.570264       -0.860054        1.080155
C           1.080074       -1.402169       -0.406985
H           0.246325        0.994189        0.146121
C          -0.758668        1.178000       -0.312494
H          -1.951679        1.039272       -0.320289
C          -1.089069       -0.271704        1.055311
H           0.874978        1.830953        0.120441
C          -1.106645        1.979897       -1.293021
H          -1.032675       -0.712584       -0.178738
H          -1.386798       -0.707171       -0.801280
16
reaction_000_gen_9_frame_0225
H          -0.124854        0.804855       -1.138952
C           0.624052       -3.197776        0.658853
H           1.262334       -1.817313        0.575526
C           1.516951        0.516604        1.363757
H           0.281157       -0.202807        0.987046
H           0.682835        0.914252       -1.556374
H           0.585905       -0.858341        1.120978
C           1.103577       -1.523970       -0.529480
H           0.398613        1.155000        0.169995
C          -0.773798        1.229332       -0.334928
H          -1.986085        0.926815       -0.384510
C          -0.889458       -0.283819        1.100513
H           0.990930        1.844022        0.281207
C          -1.135381        1.903803       -1.472453
H          -1.110786       -0.767607       -0.194214
H          -1.425989       -0.643050       -0.646963
16
reaction_000_gen_9_frame_0226
H          -0.126196        0.801012       -1.171876
C           0.713199       -3.106111        0.626750
H           1.218592       -1.839414        0.647618
C           1.597158        0.410198        1.415193
H           0.282379       -0.181848        0.990966
H           0.721884        0.940550       -1.537071
H           0.501469       -0.900793        1.200438
C           1.244080       -1.520476       -0.498569
H           0.515505        1.122537        0.040929
C          -0.863833        1.281705       -0.356456
H          -1.988731        0.954408       -0.489549
C          -0.912715       -0.366562        1.093810
H           0.931517        1.812619        0.337596
C          -1.034651        1.888755       -1.386882
H          -1.260712       -0.848953       -0.202001
H          -1.538945       -0.447626       -0.710894
16
reaction_000_gen_9_frame_0227
H          -0.156159        0.660283       -1.188506
C           0.807940       -3.101034        0.646157
H           1.214434       -1.935222        0.749795
C           1.599244        0.449115        1.358884
H           0.254020       -0.107956        0.946194
H           0.831371        1.038562       -1.521222
H           0.630717       -0.858042        1.196178
C           1.252187       -1.325340       -0.489590
H           0.562772        0.871443        0.072504
C          -0.848313        1.386228       -0.292788
H          -2.022436        1.050716       -0.519909
C          -0.880040       -0.380929        0.979861
H           0.962641        1.697672        0.295841
C          -1.189920        1.943886       -1.366784
H          -1.461404       -0.862638       -0.294238
H          -1.557056       -0.526742       -0.572378
16
reaction_000_gen_9_frame_0228
H          -0.236935        0.647823       -1.145694
C           0.678349       -2.905393        0.574875
H           1.135866       -1.913390        0.643603
C           1.727925        0.393042        1.215740
H           0.220190       -0.114955        0.854207
H           0.797866        1.133440       -1.440669
H           0.656454       -1.037382        1.203289
C           1.250911       -1.431832       -0.554401
H           0.611160        0.992757        0.143081
C          -0.788366        1.307987       -0.244612
H          -1.942697        1.051855       -0.452999
C          -0.940235       -0.273254        1.158571
H           1.046410        1.600142        0.239623
C          -1.143710        1.911895       -1.365874
H          -1.516722       -0.775051       -0.255553
H          -1.556466       -0.587686       -0.573187
16
reaction_000_gen_9_frame_0229
H          -0.183864        0.579482       -1.250269
C           0.574316       -2.948791        0.729369
H           1.280897       -1.965240        0.602083
C           1.802922        0.510035        1.158093
H           0.233231       -0.175005        0.921295
H           0.780235        0.878973       -1.447414
H           0.635823       -1.103235        1.158534
C           1.224147       -1.387910       -0.509393
H           0.603909        1.022701       -0.026700
C          -0.891648        1.413025       -0.271569
H          -1.970417        1.084698       -0.569644
C          -0.843902       -0.228615        1.423499
H           1.088724        1.481056        0.287155
C          -1.060563        1.922703       -1.410736
H          -1.569866       -0.539291       -0.307156
H          -1.703944       -0.544587       -0.487149
16
reaction_000_gen_9_frame_0230
H          -0.293614        0.575868       -1.374639
C           0.411692       -2.829832        0.729496
H           1.173471       -2.028107        0.568689
C           1.835932        0.537207        1.129533
H           0.320843       -0.257611        0.901192
H           0.704539        0.826411       -1.363447
H           0.679668       -1.105362        1.276626
C           1.236339       -1.366530       -0.502997
H           0.633733        0.989175       -0.061316
C          -0.831910        1.434407       -0.259832
H          -1.979833        1.120197       -0.552348
C          -0.751384       -0.311197        1.450015
H           1.191164        1.433540        0.359515
C          -1.099770        1.972906       -1.439277
H          -1.547709       -0.542661       -0.296882
H          -1.683161       -0.448411       -0.564328
16
reaction_000_gen_9_frame_0231
H          -0.389234        0.528391       -1.275904
C           0.277433       -2.864660        0.787344
H           1.167334       -1.998055        0.582990
C           1.811471        0.627110        0.975539
H           0.403995       -0.134910        0.813421
H           0.714776        0.775744       -1.493987
H           0.765985       -1.082901        1.261604
C           1.183912       -1.332528       -0.347536
H           0.696680        1.032137       -0.171937
C          -0.897237        1.561932       -0.268779
H          -1.989630        1.082879       -0.364511
C          -0.684969       -0.356954        1.548014
H           1.383980        1.453859        0.498306
C          -1.031734        1.945854       -1.580349
H          -1.474805       -0.685621       -0.338173
H          -1.937955       -0.552275       -0.626044
16
reaction_000_gen_9_frame_0232
H          -0.400710        0.449527       -1.248882
C           0.141463       -2.904647        0.634391
H           1.277989       -1.877637        0.528090
C           1.851005        0.525756        1.018302
H           0.496691       -0.103572        0.881913
H           0.602875        0.898792       -1.397447
H           0.755301       -1.047421        1.290913
C           1.269233       -1.397019       -0.383837
H           0.791668        0.948103       -0.202562
C          -0.926074        1.501718       -0.274691
H          -1.832913        0.982935       -0.398550
C          -0.766949       -0.188093        1.611684
H           1.435132        1.461527        0.423042
C          -1.004044        1.951891       -1.579932
H          -1.507536       -0.673072       -0.290111
H          -2.183130       -0.528789       -0.612321
16
reaction_000_gen_9_frame_0233
H          -0.404659        0.399589       -1.279718
C           0.289453       -2.904570        0.719423
H           1.365768       -1.815951        0.415749
C           1.905861        0.547788        1.123934
H           0.357714       -0.138387        0.836371
H           0.663882        0.820356       -1.374999
H           0.911549       -0.915696        1.238539
C           1.294743       -1.226933       -0.425053
H           0.789644        0.940654       -0.295270
C          -1.026966        1.411783       -0.183469
H          -1.790185        1.025327       -0.325731
C          -0.830659       -0.237600        1.594553
H           1.454812        1.298760        0.473453
C          -1.056441        1.856124       -1.503264
H          -1.753775       -0.581885       -0.426567
H          -2.170739       -0.479360       -0.587953
16
reaction_000_gen_9_frame_0234
H          -0.517496        0.398300       -1.257037
C           0.252142       -2.855108        0.804702
H           1.380442       -1.759472        0.413153
C           1.920748        0.508032        1.166007
H           0.392396       -0.201831        0.921716
H           0.599682        0.885143       -1.402722
H           1.050544       -1.019348        1.121827
C           1.314944       -1.349003       -0.436651
H           0.712363        1.064545       -0.219257
C          -1.084106        1.435250       -0.271290
H          -1.679497        1.156551       -0.425208
C          -0.769105       -0.113917        1.504484
H           1.398784        1.284756        0.458459
C          -1.116516        1.770746       -1.459295
H          -1.781078       -0.639062       -0.408450
H          -2.074246       -0.565583       -0.510440
16
reaction_000_gen_9_frame_0235
H          -0.399729        0.189476       -1.237811
C           0.285494       -2.734868        0.818681
H           1.413899       -1.704065        0.351814
C           1.930221        0.422254        1.167794
H           0.650022       -0.251479        1.013783
H           0.513265        0.851570       -1.386201
H           1.197999       -1.012889        1.125484
C           1.110375       -1.373682       -0.569851
H           0.707482        0.993198       -0.201953
C          -1.075884        1.400576       -0.331575
H          -1.763967        1.138480       -0.419752
C          -0.835843       -0.104019        1.466273
H           1.294708        1.311637        0.513828
C          -1.103260        1.781035       -1.485000
H          -1.850179       -0.361677       -0.316835
H          -2.074603       -0.545547       -0.508680
16
reaction_000_gen_9_frame_0236
H          -0.559195        0.158777       -1.312295
C           0.241596       -2.750593        0.939591
H           1.349157       -1.841707        0.519908
C           2.033771        0.175520        1.185218
H           0.548781       -0.209675        1.005544
H           0.590009        0.857890       -1.491323
H           1.266599       -1.001947        1.072191
C           1.010889       -1.340561       -0.373851
H           0.810154        0.905129       -0.208185
C          -1.156020        1.557776       -0.337487
H          -1.709972        1.336382       -0.457997
C          -0.881373       -0.140371        1.308452
H           1.395341        1.351333        0.502004
C          -1.049062        1.794191       -1.365022
H          -1.802308       -0.362722       -0.386855
H          -2.088367       -0.489423       -0.599892
16
reaction_000_gen_9_frame_0237
H          -0.538583        0.177413       -1.442402
C           0.183976       -2.749987        0.930082
H           1.220323       -1.816506        0.491274
C           1.966560        0.226961        1.271603
H           0.584793       -0.155391        1.015893
H           0.691998        0.843621       -1.472182
H           1.484723       -1.023771        1.162035
C           1.205374       -1.335426       -0.310217
H           0.805563        0.769883       -0.326611
C          -1.129621        1.564409       -0.359802
H          -1.855481        1.445595       -0.363164
C          -0.887937       -0.125726        1.318872
H           1.308745        1.382413        0.463629
C          -1.111701        1.755883       -1.240783
H          -1.806614       -0.528444       -0.508096
H          -2.122119       -0.430924       -0.630132
16
reaction_000_gen_9_frame_0238
H          -0.559973        0.264020       -1.397430
C           0.093434       -2.806782        0.837349
H           1.179485       -1.718251        0.495122
C           2.140036        0.139987        1.300553
H           0.601887       -0.223882        1.012480
H           0.636628        0.782748       -1.410184
H           1.387822       -1.001836        0.927308
C           1.152958       -1.394878       -0.365480
H           0.689779        0.777379       -0.374251
C          -1.203674        1.412496       -0.230253
H          -1.887322        1.449280       -0.187577
C          -0.726346       -0.044584        1.276129
H           1.310585        1.544731        0.471043
C          -0.887821        1.654191       -1.163727
H          -1.815652       -0.442990       -0.523256
H          -2.111824       -0.391629       -0.667826
16
reaction_000_gen_9_frame_0239
H          -0.520631        0.045570       -1.354748
C           0.017309       -2.778562        0.956714
H           1.134435       -1.666234        0.516526
C           2.232761        0.243256        1.209117
H           0.495351       -0.221283        0.926917
H           0.836452        0.939860       -1.425192
H           1.377667       -0.981968        0.933489
C           1.118624       -1.389251       -0.396241
H           0.545173        0.786214       -0.462122
C          -1.174322        1.471942       -0.266362
H          -1.971696        1.391666       -0.235638
C          -0.649056       -0.004947        1.186269
H           1.408893        1.533249        0.572167
C          -0.798757        1.670744       -1.139306
H          -1.914161       -0.452387       -0.418363
H          -2.138043       -0.587868       -0.603228
16
reaction_000_gen_9_frame_0240
H          -0.501951        0.116574       -1.392078
C           0.036430       -2.792030        0.973651
H           0.989982       -1.490655        0.489830
C           2.123975        0.312224        1.237065
H           0.509980       -0.286332        0.997746
H           0.899931        0.919248       -1.521011
H           1.554770       -0.998176        0.909109
C           1.156960       -1.407432       -0.389590
H           0.508533        0.814345       -0.505670
C          -1.063924        1.507784       -0.084005
H          -2.063981        1.285516       -0.096729
C          -0.645272       -0.020861        1.153467
H           1.396334        1.440025        0.430341
C          -0.831657        1.683297       -1.090397
H          -1.893772       -0.501609       -0.543280
H          -2.176339       -0.581917       -0.568448
16
reaction_000_gen_9_frame_0241
H          -0.517857        0.104877       -1.523482
C           0.201024       -2.799250        0.969741
H           0.986578       -1.451665        0.501597
C           2.083053        0.202767        1.172166
H           0.502717       -0.289416        0.933169
H           0.950633        0.749153       -1.632720
H           1.699401       -0.961183        0.944507
C           1.065484       -1.476479       -0.361328
H           0.542073        0.919666       -0.546812
C          -1.139919        1.565262        0.088033
H          -2.178395        1.220809       -0.102958
C          -0.721910       -0.036883        1.275831
H           1.419214        1.491623        0.379083
C          -0.820704        1.797780       -1.041067
H          -1.744482       -0.583658       -0.548764
H          -2.326910       -0.453402       -0.506994
16
reaction_000_gen_9_frame_0242
H          -0.417884        0.167106       -1.664924
C           0.166737       -2.791166        0.997111
H           1.034740       -1.467350        0.504432
C           2.136274        0.126588        1.179140
H           0.340624       -0.382230        0.947596
H           0.924482        0.791185       -1.646866
H           1.605071       -0.763016        0.959699
C           0.975138       -1.602468       -0.322378
H           0.562329        0.885687       -0.570794
C          -1.085852        1.665492        0.341267
H          -2.293564        1.220252       -0.078589
C          -0.728301        0.076506        1.246488
H           1.543655        1.405349        0.319984
C          -0.834604        1.872857       -1.020154
H          -1.704782       -0.696949       -0.668275
H          -2.224061       -0.507842       -0.523740
16
reaction_000_gen_9_frame_0243
H          -0.386196        0.284986       -1.742231
C           0.133636       -2.915290        0.949060
H           1.068055       -1.451207        0.579410
C           2.146107        0.106644        1.147124
H           0.217116       -0.250497        0.882243
H           0.924920        0.745721       -1.700248
H           1.692758       -0.692790        0.788567
C           0.771171       -1.679843       -0.151706
H           0.516797        0.948657       -0.420067
C          -0.950042        1.653321        0.276262
H          -2.067826        1.129037       -0.010586
C          -0.746956        0.161346        1.089755
H           1.486791        1.549694        0.297447
C          -0.806950        1.757426       -0.986870
H          -1.759881       -0.878253       -0.624346
H          -2.239500       -0.468951       -0.373815
16
reaction_000_gen_9_frame_0244
H          -0.296824        0.342854       -1.686938
C           0.173641       -2.833493        0.950084
H           1.227553       -1.605845        0.582238
C           2.219780        0.024731        1.145796
H           0.138576       -0.065786        0.944449
H           0.876585        0.548981       -1.640589
H           1.589650       -0.541221        0.909341
C           0.581240       -1.894849       -0.022925
H           0.459684        0.867405       -0.510091
C          -0.960091        1.508624        0.255644
H          -2.099877        1.274237       -0.038342
C          -0.558463        0.229518        0.923064
H           1.520626        1.500428        0.265222
C          -0.743966        1.868039       -1.002781
H          -1.767841       -0.865775       -0.620302
H          -2.360272       -0.357846       -0.453870
16
reaction_000_gen_9_frame_0245
H          -0.263649        0.288697       -1.675440
C           0.179277       -2.790771        1.049738
H           1.154310       -1.487395        0.607160
C           2.240536       -0.153474        1.077241
H           0.015132       -0.113393        0.951485
H           1.020835        0.713415       -1.604841
H           1.634163       -0.356789        0.866952
C           0.433501       -1.916752       -0.104724
H           0.392171        0.799196       -0.453216
C          -0.955737        1.393086        0.298529
H          -1.866265        1.312356        0.066310
C          -0.410273        0.195829        0.908474
H           1.505934        1.522777        0.157967
C          -0.887796        1.905238       -1.057464
H          -1.797665       -0.978128       -0.645575
H          -2.394475       -0.333890       -0.442598
16
reaction_000_gen_9_frame_0246
H          -0.222484        0.218993       -1.657709
C           0.174937       -2.918210        1.115712
H           1.144608       -1.517606        0.526355
C           2.267965       -0.104752        1.083766
H           0.129847       -0.191216        0.949725
H           0.976170        0.646177       -1.463048
H           1.603617       -0.214858        0.873846
C           0.359659       -1.895983       -0.157168
H           0.415415        0.859909       -0.502639
C          -0.919456        1.422361        0.445207
H          -1.964682        1.343754        0.080120
C          -0.339511        0.276244        0.823419
H           1.580174        1.468656        0.271983
C          -0.946482        1.793658       -1.208915
H          -1.850916       -0.863106       -0.691969
H          -2.408859       -0.324021       -0.488686
16
reaction_000_gen_9_frame_0247
H          -0.158747        0.175599       -1.709501
C           0.100331       -2.856235        1.060189
H           1.195578       -1.487023        0.467976
C           2.394784       -0.235696        1.179617
H           0.120545       -0.102921        1.150811
H           0.951044        0.654223       -1.542478
H           1.690120       -0.178655        0.864797
C           0.333659       -1.963652       -0.224333
H           0.389563        0.848560       -0.515558
C          -1.152562        1.408377        0.419560
H          -1.937513        1.339989        0.127162
C          -0.428015        0.238769        0.823731
H           1.604369        1.483002        0.254758
C          -0.879835        1.825229       -1.079642
H          -1.844593       -0.862087       -0.702880
H          -2.378726       -0.287479       -0.574209
16
reaction_000_gen_9_frame_0248
H          -0.213479        0.064371       -1.692155
C           0.302817       -2.847475        0.985523
H           1.048084       -1.417799        0.590357
C           2.501287       -0.272774        1.182880
H           0.040596       -0.132671        1.188297
H           1.109719        0.782273       -1.572520
H           1.650633       -0.243686        0.797712
C           0.406536       -1.929582       -0.175430
H           0.473324        0.870288       -0.455796
C          -1.249140        1.305397        0.431129
H          -1.825589        1.375814        0.060533
C          -0.475337        0.039481        0.713147
H           1.512376        1.489181        0.338634
C          -0.876574        1.937586       -1.157294
H          -2.010776       -0.747271       -0.656369
H          -2.394475       -0.273132       -0.578647
16
reaction_000_gen_9_frame_0249
H          -0.181661        0.008137       -1.656054
C           0.245982       -2.720218        0.875415
H           0.978268       -1.360074        0.598104
C           2.481083       -0.231485        1.147533
H           0.046791       -0.196231        1.124656
H           1.142359        0.849417       -1.540389
H           1.735465       -0.246698        0.797998
C           0.293743       -2.000803       -0.262171
H           0.437504        0.919134       -0.572444
C          -1.238164        1.331836        0.414541
H          -1.843934        1.203898        0.155060
C          -0.366986        0.000900        0.939529
H           1.566107        1.524001        0.359442
C          -1.032830        1.956990       -1.123147
H          -1.945388       -0.634770       -0.691806
H          -2.318336       -0.404032       -0.566268
16
reaction_000_gen_9_frame_0250
H          -0.294304       -0.036983       -1.723688
C           0.188612       -2.671981        0.830027
H           1.016854       -1.318596        0.484006
C           2.422606       -0.310066        1.130700
H           0.153256       -0.118187        1.047312
H           1.075700        0.827705       -1.426852
H           1.720255       -0.291600        0.831146
C           0.425144       -1.965472       -0.416705
H           0.491706        0.934928       -0.459052
C          -1.231499        1.414571        0.512499
H          -1.826099        1.113221        0.266922
C          -0.413474        0.083880        0.868209
H           1.499867        1.565269        0.424529
C          -0.990497        1.888572       -1.079545
H          -1.893452       -0.580765       -0.687069
H          -2.344675       -0.534495       -0.602439
16
reaction_000_gen_9_frame_0251
H          -0.373587       -0.095316       -1.844150
C           0.199953       -2.737887        0.996639
H           1.171378       -1.252174        0.357586
C           2.366757       -0.167341        1.212320
H           0.253311       -0.221767        1.122296
H           1.042236        0.728016       -1.369209
H           1.674858       -0.170820        0.710884
C           0.308266       -1.885431       -0.311858
H           0.410262        1.025064       -0.422313
C          -1.139524        1.275859        0.490742
H          -1.687604        1.024368        0.304116
C          -0.542236        0.084297        0.861456
H           1.498796        1.613555        0.299235
C          -1.011775        1.880351       -1.073267
H          -1.962286       -0.529259       -0.693673
H          -2.208806       -0.571515       -0.640803
16
reaction_000_gen_9_frame_0252
H          -0.426089       -0.085336       -1.788770
C           0.092536       -2.871800        0.950414
H           1.208322       -1.237765        0.410685
C           2.367372       -0.104428        1.127157
H           0.275276       -0.117814        1.092916
H           1.048416        0.709269       -1.367510
H           1.842431       -0.241310        0.857746
C           0.191682       -1.859355       -0.423535
H           0.426839        0.911479       -0.372592
C          -1.062748        1.245859        0.552985
H          -1.732828        1.139670        0.273082
C          -0.445947        0.015851        0.926749
H           1.411236        1.650774        0.267953
C          -1.168483        1.773888       -1.131031
H          -1.964653       -0.367343       -0.710602
H          -2.063360       -0.561639       -0.665647
16
reaction_000_gen_9_frame_0253
H          -0.402400        0.031712       -1.757571
C           0.011378       -2.812485        0.922204
H           1.329592       -1.223515        0.491288
C           2.367628       -0.196532        1.082049
H           0.287243       -0.220010        0.892678
H           0.984230        0.704999       -1.349945
H           1.848913       -0.344456        0.931086
C           0.229124       -1.842051       -0.367980
H           0.352270        0.874196       -0.350440
C          -1.129028        1.240449        0.517972
H          -1.696148        1.117970        0.273207
C          -0.576579       -0.098219        0.988100
H           1.279661        1.626268        0.421529
C          -1.037255        1.983781       -1.248531
H          -1.879411       -0.380246       -0.885129
H          -1.969218       -0.461860       -0.560516
16
reaction_000_gen_9_frame_0254
H          -0.436128       -0.114503       -1.726771
C          -0.034612       -2.852491        0.910732
H           1.264877       -1.218444        0.418226
C           2.310544       -0.055502        1.154502
H           0.266477       -0.245031        0.951960
H           1.037926        0.787018       -1.414316
H           1.779160       -0.496322        0.803549
C           0.301313       -1.829421       -0.380720
H           0.276031        1.000769       -0.270712
C          -0.999489        1.291395        0.476961
H          -1.596931        1.123487        0.285064
C          -0.515724        0.015619        1.014834
H           1.332439        1.721962        0.482297
C          -1.168637        1.886505       -1.208181
H          -1.854499       -0.396093       -0.912292
H          -1.962748       -0.618949       -0.585130
16
reaction_000_gen_9_frame_0255
H          -0.581081       -0.095783       -1.736793
C          -0.008005       -2.865084        0.843508
H           1.318455       -1.154534        0.421338
C           2.155708       -0.108151        1.186008
H           0.234146       -0.187319        0.960643
H           1.114746        0.839868       -1.474084
H           1.811320       -0.345670        0.971496
C           0.260003       -1.885721       -0.523873
H           0.201335        0.989295       -0.207868
C          -1.020528        1.337553        0.420594
H          -1.529303        1.044997        0.275903
C          -0.416627       -0.022675        0.999963
H           1.331574        1.596905        0.521091
C          -1.069203        1.929054       -1.190800
H          -1.844973       -0.303167       -0.854563
H          -1.957569       -0.769568       -0.612563
16
reaction_000_gen_9_frame_0256
H          -0.615185       -0.227028       -1.866526
C          -0.148755       -2.722128        0.860223
H           1.330402       -1.148692        0.514695
C           2.142247       -0.072818        1.203637
H           0.371055       -0.169596        0.974896
H           1.230391        0.810608       -1.362216
H           1.735737       -0.427756        0.886206
C           0.273544       -1.884039       -0.557201
H           0.263319        1.068416       -0.138630
C          -1.024090        1.397364        0.477259
H          -1.569110        1.043879        0.163920
C          -0.382369       -0.094457        0.955505
H           1.366089        1.451265        0.503784
C          -1.112151        2.018342       -1.293716
H          -1.796916       -0.297589       -0.729675
H          -2.064206       -0.745770       -0.592161
16
reaction_000_gen_9_frame_0257
H          -0.659416       -0.270395       -1.862795
C          -0.088563       -2.681854        0.732459
H           1.280074       -1.081275        0.511258
C           2.348790       -0.050962        1.287829
H           0.406995       -0.146692        0.939353
H           1.246935        0.921992       -1.264472
H           1.954369       -0.477011        1.008976
C           0.264123       -1.798969       -0.553207
H           0.309519        1.108793       -0.184584
C          -1.064358        1.341196        0.460046
H          -1.469349        1.070175        0.017811
C          -0.426195       -0.055145        0.887675
H           1.314068        1.390489        0.594049
C          -1.215113        1.951616       -1.297255
H          -1.913179       -0.284179       -0.743687
H          -2.288702       -0.937779       -0.533457
16
reaction_000_gen_9_frame_0258
H          -0.780888       -0.264976       -1.833057
C          -0.047177       -2.643786        0.713266
H           1.235812       -1.141844        0.615787
C           2.478309       -0.034192        1.331855
H           0.353904       -0.161060        1.073428
H           1.292904        0.929037       -1.347345
H           1.934179       -0.490283        0.905788
C           0.195144       -1.842796       -0.515803
H           0.381419        1.132800       -0.180493
C          -1.103227        1.424796        0.470447
H          -1.582678        0.940259        0.085900
C          -0.395164       -0.028671        0.842240
H           1.423432        1.325701        0.527800
C          -1.080321        2.008849       -1.355491
H          -1.904651       -0.261529       -0.796206
H          -2.400997       -0.892304       -0.538116
16
reaction_000_gen_9_frame_0259
H          -0.838542       -0.471088       -1.784354
C          -0.071993       -2.542054        0.605058
H           1.224167       -1.192236        0.612643
C           2.569134       -0.132536        1.339714
H           0.385784       -0.124313        0.902544
H           1.234653        0.911300       -1.427105
H           1.902667       -0.481156        0.899272
C           0.212461       -1.811492       -0.583122
H           0.480265        1.146937       -0.160247
C          -1.159600        1.431846        0.549883
H          -1.726883        1.020295       -0.044041
C          -0.471949       -0.095636        0.904430
H           1.546477        1.404319        0.488630
C          -1.077963        2.136830       -1.164904
H          -1.820952       -0.137523       -0.699501
H          -2.387727       -1.063491       -0.438898
16
reaction_000_gen_9_frame_0260
H          -0.802386       -0.595163       -1.787412
C          -0.041059       -2.517463        0.535586
H           1.156756       -1.121183        0.672558
C           2.575494       -0.214852        1.272942
H           0.351292       -0.264586        0.875265
H           1.259928        1.048578       -1.508365
H           1.774478       -0.415845        0.895811
C           0.304430       -1.800534       -0.577978
H           0.479137        1.204937       -0.099868
C          -1.155399        1.471061        0.427572
H          -1.740849        1.076009        0.047149
C          -0.384405        0.013070        0.871461
H           1.595319        1.408669        0.467944
C          -1.089154        2.092260       -1.227328
H          -1.771026       -0.232416       -0.554567
H          -2.512555       -1.152540       -0.310771
16
reaction_000_gen_9_frame_0261
H          -0.719871       -0.598223       -1.754548
C          -0.052771       -2.464770        0.446097
H           1.233476       -1.150766        0.619016
C           2.566522       -0.108432        1.317904
H           0.271772       -0.222130        1.051677
H           1.210757        1.009857       -1.435016
H           1.712781       -0.394311        0.823499
C           0.254552       -1.809690       -0.638399
H           0.464041        1.330495       -0.123199
C          -1.064308        1.550520        0.369814
H          -1.680373        1.007912        0.082467
C          -0.464894       -0.089567        0.901667
H           1.656727        1.418042        0.432160
C          -1.092247        2.054119       -1.307320
H          -1.774363       -0.339588       -0.545214
H          -2.521801       -1.193466       -0.240606
16
reaction_000_gen_9_frame_0262
H          -0.562719       -0.701476       -1.649579
C          -0.114525       -2.466089        0.375517
H           1.181598       -1.041369        0.579380
C           2.611024        0.050863        1.273852
H           0.323050       -0.196945        0.987079
H           1.130398        1.017362       -1.332038
H           1.729382       -0.143522        0.713910
C           0.202044       -1.836307       -0.538835
H           0.527437        1.320013       -0.198493
C          -1.123576        1.460743        0.571825
H          -1.709390        1.022247        0.059504
C          -0.299924       -0.176953        0.905798
H           1.532385        1.308926        0.372464
C          -1.122084        1.883018       -1.304376
H          -1.730620       -0.357752       -0.539676
H          -2.574479       -1.142759       -0.276331
16
reaction_000_gen_9_frame_0263
H          -0.585980       -0.718769       -1.674031
C           0.000433       -2.292675        0.481876
H           1.156951       -1.061110        0.556959
C           2.634799        0.083654        1.352308
H           0.301104       -0.248611        0.905222
H           1.015713        1.052585       -1.335964
H           1.697535       -0.076253        0.733819
C           0.253988       -1.909175       -0.583456
H           0.532995        1.268169       -0.343378
C          -1.180692        1.285370        0.500427
H          -1.765731        1.052114        0.150687
C          -0.525671       -0.120884        0.946313
H           1.562771        1.373630        0.271348
C          -0.992205        1.837762       -1.278501
H          -1.595870       -0.342060       -0.497625
H          -2.510141       -1.183748       -0.186003
16
reaction_000_gen_9_frame_0264
H          -0.631713       -0.655801       -1.597595
C          -0.083334       -2.333847        0.498611
H           1.257965       -1.046389        0.400077
C           2.569468        0.047720        1.317421
H           0.313222       -0.287939        0.994375
H           0.973609        1.165574       -1.266988
H           1.794141       -0.056578        0.698000
C           0.237712       -1.836966       -0.576314
H           0.511601        1.181945       -0.344548
C          -1.174864        1.147027        0.557230
H          -1.731074        1.193637        0.111441
C          -0.571151       -0.224842        0.874631
H           1.659700        1.379300        0.243926
C          -0.938340        1.780260       -1.143808
H          -1.694446       -0.288933       -0.445991
H          -2.492496       -1.164168       -0.320469
16
reaction_000_gen_9_frame_0265
H          -0.627110       -0.667489       -1.668063
C          -0.126221       -2.316726        0.460779
H           1.249332       -1.026378        0.382420
C           2.713428        0.029940        1.321771
H           0.238922       -0.283792        0.977506
H           0.922534        1.305571       -1.241774
H           1.898221       -0.025292        0.580620
C           0.121250       -1.900400       -0.555890
H           0.628017        1.213102       -0.301473
C          -1.125431        1.120598        0.677772
H          -1.675844        1.095518        0.227958
C          -0.503040       -0.160187        0.884120
H           1.553198        1.221461        0.145200
C          -1.042524        1.872594       -1.052834
H          -1.667069       -0.320661       -0.504698
H          -2.557662       -1.157860       -0.333413
16
reaction_000_gen_9_frame_0266
H          -0.742353       -0.746091       -1.686310
C          -0.187499       -2.325192        0.484738
H           1.417210       -1.131786        0.425813
C           2.771763       -0.006185        1.236740
H           0.271993       -0.258352        0.856702
H           1.051571        1.261469       -1.420902
H           1.750086        0.063413        0.561876
C           0.265954       -2.064701       -0.491145
H           0.542840        1.145700       -0.175501
C          -1.253397        1.204454        0.654246
H          -1.698929        1.053993        0.270142
C          -0.546542       -0.168699        0.846397
H           1.612137        1.254152        0.282100
C          -0.982220        1.974413       -1.059298
H          -1.712794       -0.330227       -0.422057
H          -2.559818       -0.926360       -0.363540
16
reaction_000_gen_9_frame_0267
H          -0.762764       -0.788713       -1.617890
C          -0.223548       -2.303240        0.446376
H           1.349042       -1.130674        0.430722
C           2.668846        0.065194        1.247412
H           0.171833       -0.402602        0.743390
H           1.161111        1.245735       -1.382524
H           1.808615        0.135990        0.556017
C           0.159093       -2.177722       -0.446167
H           0.539965        1.249242       -0.123790
C          -1.265840        1.183036        0.488468
H          -1.621476        1.251600        0.234113
C          -0.570119       -0.228442        0.816673
H           1.647710        1.148850        0.400518
C          -0.951880        1.945732       -1.042058
H          -1.656898       -0.308947       -0.351576
H          -2.453689       -0.885042       -0.399684
16
reaction_000_gen_9_frame_0268
H          -0.894158       -0.769883       -1.476010
C          -0.236595       -2.294380        0.378841
H           1.345372       -1.127778        0.331724
C           2.688679       -0.005541        1.291273
H           0.122790       -0.349188        0.641093
H           1.153892        1.399919       -1.393008
H           1.639897        0.058429        0.455661
C           0.235210       -2.111660       -0.512920
H           0.658077        1.156161       -0.039635
C          -1.377845        1.205934        0.677518
H          -1.533579        1.332500        0.242117
C          -0.558082       -0.232148        0.751422
H           1.672083        1.202094        0.291174
C          -0.808987        1.868631       -0.938986
H          -1.697450       -0.329470       -0.388840
H          -2.409306       -1.003618       -0.311423
16
reaction_000_gen_9_frame_0269
H          -0.728763       -0.705959       -1.374543
C          -0.230968       -2.160922        0.431787
H           1.273346       -1.089147        0.361943
C           2.779255       -0.060248        1.334714
H           0.232094       -0.334974        0.645356
H           1.191619        1.221879       -1.359108
H           1.668733        0.232775        0.472152
C           0.208087       -2.165516       -0.536446
H           0.542566        1.203859       -0.060203
C          -1.399991        1.172355        0.648481
H          -1.695728        1.381547        0.339623
C          -0.556351       -0.284743        0.754683
H           1.680121        1.210533        0.180447
C          -1.007452        1.814072       -0.894951
H          -1.587853       -0.394106       -0.559177
H          -2.368714       -1.041406       -0.384755
16
reaction_000_gen_9_frame_0270
H          -0.802507       -0.738579       -1.304062
C          -0.102642       -2.318600        0.541759
H           1.274871       -1.077062        0.466676
C           2.750225       -0.026822        1.138932
H           0.257132       -0.399090        0.559670
H           1.157797        1.248227       -1.367141
H           1.617024        0.350625        0.619502
C           0.339815       -2.210019       -0.502562
H           0.503124        1.277292       -0.163480
C          -1.400043        1.156789        0.524398
H          -1.683635        1.325561        0.242182
C          -0.459662       -0.256279        0.770130
H           1.790517        1.121583        0.162470
C          -1.108078        1.947662       -0.920820
H          -1.724400       -0.352980       -0.482616
H          -2.409539       -1.048307       -0.285038
16
reaction_000_gen_9_frame_0271
H          -0.674605       -0.785474       -1.351779
C          -0.094965       -2.280912        0.397748
H           1.299287       -1.059361        0.641076
C           2.711082       -0.002645        1.102670
H           0.269846       -0.306756        0.696724
H           1.153463        1.144097       -1.406717
H           1.678280        0.474260        0.733558
C           0.326722       -2.188391       -0.539060
H           0.432645        1.184037       -0.287318
C          -1.443863        1.145969        0.444066
H          -1.796639        1.362569        0.243033
C          -0.416536       -0.169752        0.909601
H           1.747388        1.092873        0.165460
C          -1.023819        1.975975       -0.921796
H          -1.749215       -0.390373       -0.482566
H          -2.419068       -1.196117       -0.344700
16
reaction_000_gen_9_frame_0272
H          -0.801585       -0.838266       -1.366615
C          -0.020720       -2.306053        0.440407
H           1.259145       -1.086192        0.603881
C           2.696119        0.024176        0.963513
H           0.277534       -0.255709        0.783247
H           1.064234        1.091349       -1.382227
H           1.766004        0.464874        0.795351
C           0.516127       -2.153542       -0.649047
H           0.466544        1.221327       -0.218274
C          -1.340922        1.138813        0.521610
H          -1.777961        1.417994        0.301216
C          -0.501544       -0.200342        0.949266
H           1.742121        1.144771        0.235861
C          -1.154519        1.944228       -1.015914
H          -1.749554       -0.436193       -0.562555
H          -2.441023       -1.171236       -0.399719
16
reaction_000_gen_9_frame_0273
H          -0.617752       -1.037207       -1.257505
C           0.073558       -2.296012        0.443753
H           1.180821       -0.917403        0.615516
C           2.656184       -0.101190        0.874424
H           0.252405       -0.185198        0.804803
H           1.113236        1.214394       -1.384310
H           1.817897        0.533448        0.862912
C           0.503033       -2.232801       -0.635489
H           0.360411        1.186767       -0.196185
C          -1.493874        1.184750        0.457409
H          -1.743529        1.336026        0.250566
C          -0.409624       -0.241747        0.846476
H           1.754174        1.086594        0.290657
C          -1.127343        1.957194       -1.077325
H          -1.749616       -0.362017       -0.446272
H          -2.569980       -1.125599       -0.449430
16
reaction_000_gen_9_frame_0274
H          -0.635577       -0.967854       -1.229856
C           0.035225       -2.285691        0.377040
H           1.167428       -0.816743        0.717095
C           2.668722       -0.124088        0.986629
H           0.233855       -0.350384        0.719659
H           0.998166        1.208828       -1.380401
H           1.899140        0.515400        0.756030
C           0.652248       -2.252144       -0.639242
H           0.284695        1.204664       -0.190747
C          -1.518143        1.219876        0.486402
H          -1.769213        1.370549        0.088024
C          -0.218745       -0.085495        0.903226
H           1.501755        1.053071        0.457292
C          -1.029294        1.829129       -1.091637
H          -1.715777       -0.367681       -0.435296
H          -2.554484       -1.151438       -0.524220
16
reaction_000_gen_9_frame_0275
H          -0.610228       -0.998183       -1.266675
C           0.045642       -2.195560        0.503322
H           1.220215       -0.818325        0.702442
C           2.683727       -0.049875        0.978883
H           0.270642       -0.375641        0.781070
H           1.062913        1.241461       -1.415232
H           1.914537        0.471135        0.642333
C           0.672229       -2.238741       -0.694842
H           0.106416        1.276857       -0.090738
C          -1.573356        1.116844        0.622092
H          -1.804859        1.319408       -0.006176
C          -0.279695       -0.038447        0.802900
H           1.514251        0.979069        0.490113
C          -1.005612        1.829316       -1.035986
H          -1.632326       -0.246404       -0.519975
H          -2.584497       -1.272914       -0.493531
16
reaction_000_gen_9_frame_0276
H          -0.700575       -1.024140       -1.186294
C          -0.086905       -2.167838        0.452653
H           1.207417       -0.838677        0.630447
C           2.719429       -0.137972        0.967978
H           0.247436       -0.509307        0.676331
H           1.193107        1.210001       -1.533916
H           2.019032        0.528620        0.753961
C           0.643825       -2.217236       -0.687411
H           0.171696        1.328924       -0.116574
C          -1.614603        1.206507        0.578684
H          -1.845825        1.440890        0.012885
C          -0.242598       -0.071826        0.907014
H           1.491045        0.899002        0.513221
C          -1.029334        1.751637       -0.936675
H          -1.612411       -0.122594       -0.395049
H          -2.560737       -1.275990       -0.637254
16
reaction_000_gen_9_frame_0277
H          -0.680520       -0.981297       -1.159298
C           0.020786       -2.055010        0.482621
H           1.145663       -0.899081        0.605475
C           2.785873       -0.192366        0.975306
H           0.199286       -0.497718        0.377082
H           1.235250        1.161772       -1.684175
H           1.980451        0.547956        0.854002
C           0.657008       -2.156843       -0.697602
H           0.123232        1.281553       -0.120787
C          -1.596938        1.214849        0.643460
H          -1.786483        1.446754       -0.023178
C          -0.202662       -0.231140        1.046743
H           1.510351        0.911273        0.638431
C          -1.055518        1.784936       -0.940143
H          -1.771645       -0.078969       -0.286369
H          -2.564134       -1.256668       -0.711570
16
reaction_000_gen_9_frame_0278
H          -0.527720       -0.982302       -1.167302
C           0.042977       -2.055831        0.541457
H           1.070876       -0.872545        0.513642
C           2.725382       -0.253115        0.952975
H           0.154414       -0.634479        0.432376
H           1.273150        1.170295       -1.751764
H           1.979049        0.623561        0.920968
C           0.709855       -2.104798       -0.697329
H           0.190010        1.233337       -0.126596
C          -1.497029        1.240327        0.669141
H          -1.924375        1.507670       -0.082180
C          -0.183179       -0.226920        1.074014
H           1.432704        0.886168        0.600536
C          -1.000092        1.812169       -0.916594
H          -1.888501       -0.092961       -0.283439
H          -2.557523       -1.250578       -0.679904
16
reaction_000_gen_9_frame_0279
H          -0.431502       -0.997391       -1.072174
C           0.019762       -2.037979        0.578634
H           0.949150       -0.865981        0.362473
C           2.707458       -0.188524        0.937508
H           0.270096       -0.775524        0.521099
H           1.259679        1.138282       -1.769205
H           2.044255        0.649902        0.867801
C           0.736380       -2.087918       -0.701713
H           0.179403        1.261652       -0.160784
C          -1.487132        1.272443        0.828907
H          -1.826739        1.427971       -0.031169
C          -0.306470       -0.298181        1.094946
H           1.389557        0.953842        0.599910
C          -0.979093        1.868229       -1.003771
H          -1.977804       -0.051593       -0.302578
H          -2.547000       -1.269229       -0.749883
16
reaction_000_gen_9_frame_0280
H          -0.511240       -1.068755       -1.150114
C           0.081201       -2.141083        0.673529
H           0.894438       -0.764412        0.225810
C           2.628479       -0.087409        1.039752
H           0.228316       -0.676393        0.507837
H           1.250613        1.227514       -1.790704
H           2.174349        0.529876        0.795694
C           0.627613       -2.163185       -0.766705
H           0.201420        1.159000       -0.161816
C          -1.319970        1.166616        1.017806
H          -1.915274        1.437378       -0.041296
C          -0.306525       -0.258785        1.029189
H           1.392567        0.965211        0.585991
C          -0.843215        1.835357       -0.968645
H          -1.993858        0.061737       -0.322855
H          -2.588913       -1.222668       -0.673473
16
reaction_000_gen_9_frame_0281
H          -0.411925       -1.181413       -1.180220
C           0.050104       -2.250922        0.668621
H           0.942777       -0.704002        0.175810
C           2.538956       -0.029007        1.001749
H           0.288661       -0.799794        0.588067
H           1.187013        1.094425       -1.682321
H           1.987553        0.612166        0.956179
C           0.661905       -2.117571       -0.634892
H           0.182655        1.175822       -0.200050
C          -1.250815        1.223032        1.016019
H          -1.943804        1.413723       -0.189439
C          -0.169477       -0.203041        0.937637
H           1.323965        1.008032        0.716839
C          -0.863474        1.855042       -1.094339
H          -1.918186        0.065775       -0.434140
H          -2.605907       -1.162267       -0.645521
16
reaction_000_gen_9_frame_0282
H          -0.479514       -1.235595       -1.077653
C           0.220696       -2.247283        0.711225
H           0.955044       -0.736620        0.111794
C           2.537054       -0.035339        1.073851
H           0.386870       -0.942334        0.547732
H           1.063336        1.067588       -1.707272
H           1.891119        0.535273        0.963142
C           0.705634       -2.048807       -0.612185
H           0.183874        1.132720       -0.307786
C          -1.189955        1.139961        1.098881
H          -1.946538        1.439401       -0.279611
C          -0.183710       -0.191262        0.938460
H           1.304210        0.987639        0.768416
C          -0.882441        1.942200       -1.066076
H          -1.942692        0.266601       -0.508518
H          -2.622988       -1.074143       -0.654400
16
reaction_000_gen_9_frame_0283
H          -0.402412       -1.178243       -1.001847
C           0.193905       -2.291166        0.602919
H           1.025027       -0.973836        0.104333
C           2.562240        0.018476        0.952852
H           0.220587       -0.978215        0.547145
H           0.982150        1.050359       -1.659663
H           1.853020        0.604105        0.989643
C           0.657313       -2.020690       -0.599637
H           0.182128        1.225282       -0.152392
C          -1.138455        1.050243        1.120319
H          -1.986382        1.433802       -0.226887
C          -0.234160       -0.092137        0.945559
H           1.375225        1.038365        0.709601
C          -0.849725        1.960642       -1.018089
H          -1.855237        0.179007       -0.609190
H          -2.585223       -1.025995       -0.704665
16
reaction_000_gen_9_frame_0284
H          -0.360105       -1.086357       -0.928993
C           0.142583       -2.187734        0.487725
H           1.030482       -0.947048        0.180513
C           2.620717       -0.077859        1.000418
H           0.245230       -1.085981        0.543172
H           0.792018        1.139094       -1.572598
H           1.810890        0.660917        0.914491
C           0.753753       -2.023386       -0.565196
H           0.150211        1.180477       -0.279830
C          -1.177164        1.095019        1.148919
H          -1.891248        1.407196       -0.134062
C          -0.121108       -0.101101        0.815662
H           1.390192        1.072265        0.666748
C          -0.807925        1.967227       -1.013764
H          -1.969686        0.048509       -0.563928
H          -2.608840       -1.061238       -0.699276
16
reaction_000_gen_9_frame_0285
H          -0.266225       -1.025686       -0.811793
C           0.175577       -2.145177        0.489097
H           0.901467       -1.104392        0.079498
C           2.686018       -0.070615        0.948666
H           0.180049       -1.137269        0.731789
H           0.753864        1.216284       -1.628723
H           1.707640        0.651470        0.893095
C           0.795740       -2.127371       -0.597541
H           0.236495        1.425991       -0.277171
C          -1.086374        1.003518        1.193879
H          -1.775155        1.360879       -0.143721
C          -0.108729        0.008968        0.861278
H           1.273333        1.145606        0.611226
C          -0.866812        1.799461       -1.067732
H          -2.001683       -0.005684       -0.562602
H          -2.605204       -0.995983       -0.719243
16
reaction_000_gen_9_frame_0286
H          -0.309577       -0.936107       -0.876803
C           0.210140       -2.149819        0.427356
H           0.938650       -1.113548        0.184231
C           2.662658       -0.040714        0.837804
H           0.035912       -1.117910        0.735185
H           0.835107        1.205129       -1.654140
H           1.762302        0.670423        0.872164
C           0.775655       -2.138615       -0.536874
H           0.244033        1.287518       -0.169786
C          -1.053416        1.045167        1.277958
H          -1.702877        1.392871       -0.130138
C          -0.154880        0.062877        0.868864
H           1.137897        1.122461        0.704522
C          -0.818954        1.825153       -1.138719
H          -1.971402        0.001373       -0.649649
H          -2.591249       -1.116260       -0.751978
16
reaction_000_gen_9_frame_0287
H          -0.273707       -0.984434       -0.844928
C           0.239469       -2.070051        0.425283
H           0.852841       -1.107531        0.168439
C           2.547245        0.040215        0.810455
H           0.087655       -1.091475        0.656014
H           0.872762        1.147637       -1.672141
H           1.763555        0.507122        0.863691
C           0.787097       -2.178505       -0.539413
H           0.180772        1.393167       -0.163758
C          -1.035341        1.157477        1.162700
H          -1.723020        1.356500        0.048535
C          -0.111233       -0.112683        0.742822
H           1.146064        1.170924        0.731865
C          -0.859524        1.794528       -1.059865
H          -1.896182       -0.019360       -0.619081
H          -2.578454       -1.003532       -0.710617
16
reaction_000_gen_9_frame_0288
H          -0.256455       -1.117206       -0.659068
C           0.226636       -2.029265        0.256986
H           0.851222       -1.148200        0.115766
C           2.582309        0.057608        0.830312
H           0.065086       -0.889645        0.644090
H           0.850702        1.121590       -1.670051
H           1.743934        0.508224        0.794954
C           0.781719       -2.219577       -0.639894
H           0.118957        1.342080       -0.248462
C          -0.995883        1.152582        1.143188
H          -1.692500        1.516288        0.063026
C          -0.113391       -0.112856        0.833151
H           1.176099        1.277838        0.663824
C          -0.785866        1.730694       -0.905253
H          -1.921133       -0.111598       -0.540760
H          -2.631437       -1.078558       -0.681809
16
reaction_000_gen_9_frame_0289
H          -0.355778       -1.046242       -0.598515
C           0.091321       -1.995619        0.210549
H           0.883270       -1.112782        0.001403
C           2.532482        0.011507        0.984025
H           0.022860       -0.964947        0.706166
H           0.828263        1.013811       -1.697204
H           1.735446        0.464716        0.986348
C           0.762866       -2.310951       -0.563392
H           0.164173        1.395768       -0.175381
C          -1.000815        1.243010        1.059849
H          -1.720059        1.604031        0.022436
C           0.025972       -0.182513        0.820753
H           1.270683        1.312901        0.593226
C          -0.714505        1.766120       -0.984102
H          -1.820814       -0.096710       -0.587956
H          -2.705365       -1.102100       -0.778204
16
reaction_000_gen_9_frame_0290
H          -0.357159       -1.172591       -0.708881
C           0.080763       -2.109630        0.334024
H           0.905831       -1.094626       -0.023397
C           2.592180        0.059452        0.948545
H           0.064412       -0.988011        0.723878
H           0.818243        1.097508       -1.594412
H           1.681217        0.538296        0.920248
C           0.790526       -2.437282       -0.461097
H           0.225810        1.365751       -0.190701
C          -0.995009        1.349653        0.965976
H          -1.729617        1.528443        0.108177
C           0.032097       -0.156535        0.890561
H           1.249036        1.322033        0.540358
C          -0.793163        1.739372       -0.983498
H          -1.861249       -0.001160       -0.723635
H          -2.703917       -1.040675       -0.746147
16
reaction_000_gen_9_frame_0291
H          -0.330188       -1.280876       -0.726673
C           0.141661       -2.105108        0.170222
H           0.851509       -1.002164       -0.084513
C           2.528629        0.047817        0.843253
H           0.099364       -0.916586        0.955363
H           0.901059        1.134680       -1.591762
H           1.587270        0.596196        0.994262
C           0.668812       -2.369246       -0.421089
H           0.191340        1.331285       -0.428714
C          -0.802195        1.353588        0.844572
H          -1.597589        1.438462        0.181167
C           0.021803       -0.231652        1.035467
H           1.259864        1.356505        0.557007
C          -0.968676        1.665387       -1.008219
H          -1.866776        0.056127       -0.626732
H          -2.685888       -1.074417       -0.693612
16
reaction_000_gen_9_frame_0292
H          -0.430234       -1.241194       -0.706975
C           0.167067       -2.160585        0.205714
H           0.926825       -1.059756       -0.059403
C           2.555431        0.004814        0.712178
H           0.137670       -0.790317        0.974918
H           0.813535        1.103661       -1.582027
H           1.626769        0.649119        1.033488
C           0.648433       -2.478958       -0.392571
H           0.317272        1.274546       -0.547358
C          -0.779630        1.353849        0.967200
H          -1.756927        1.614214        0.094297
C          -0.100136       -0.161050        1.021751
H           1.278052        1.347559        0.599983
C          -0.941435        1.563212       -1.075722
H          -1.873285        0.064704       -0.561016
H          -2.589406       -1.083819       -0.684456
16
reaction_000_gen_9_frame_0293
H          -0.463913       -1.215075       -0.665794
C           0.119199       -2.257226        0.116665
H           1.074747       -1.174218       -0.093889
C           2.408159        0.126806        0.543949
H           0.210486       -0.719363        0.994869
H           0.756130        1.062452       -1.595316
H           1.625945        0.663043        0.991116
C           0.616536       -2.504607       -0.471275
H           0.381938        1.321193       -0.562316
C          -0.815913        1.368250        1.036539
H          -1.698526        1.583516        0.073620
C          -0.193328       -0.095445        1.126952
H           1.429199        1.247731        0.623354
C          -0.990652        1.623919       -0.913889
H          -1.906452        0.175278       -0.622306
H          -2.553558       -1.206255       -0.582280
16
reaction_000_gen_9_frame_0294
H          -0.486399       -1.301830       -0.724190
C           0.131502       -2.225109        0.120957
H           1.091616       -1.158714       -0.051132
C           2.366742        0.131521        0.594095
H           0.018318       -0.615948        1.131357
H           0.773718        0.941365       -1.563842
H           1.552406        0.658539        0.842670
C           0.571025       -2.448973       -0.423129
H           0.408016        1.446079       -0.453641
C          -0.629483        1.424257        0.933215
H          -1.630860        1.521098        0.123402
C          -0.203691       -0.159606        1.099960
H           1.315903        1.364906        0.547920
C          -0.936037        1.540123       -0.976065
H          -1.824332        0.137099       -0.596588
H          -2.518441       -1.254806       -0.604990
16
reaction_000_gen_9_frame_0295
H          -0.403196       -1.397631       -0.748035
C          -0.029168       -2.179093        0.138569
H           1.158841       -1.139198       -0.038305
C           2.343397        0.100329        0.551001
H          -0.063456       -0.575795        1.180394
H           0.789434        0.902432       -1.471793
H           1.631367        0.693848        0.822507
C           0.607409       -2.292923       -0.448152
H           0.390059        1.365251       -0.376273
C          -0.648910        1.301685        0.885461
H          -1.624918        1.667430        0.128858
C          -0.291202       -0.172320        1.071331
H           1.370484        1.402732        0.465820
C          -0.970246        1.532747       -0.974825
H          -1.680026        0.126927       -0.619038
H          -2.579872       -1.336423       -0.567521
16
reaction_000_gen_9_frame_0296
H          -0.460335       -1.268034       -0.758304
C          -0.093728       -2.232406        0.104293
H           1.228161       -1.259784       -0.104932
C           2.323998        0.193912        0.657033
H          -0.064283       -0.452730        1.268270
H           0.817161        0.887309       -1.520618
H           1.713478        0.588718        0.848707
C           0.691210       -2.305001       -0.301911
H           0.520798        1.403881       -0.513995
C          -0.629955        1.323326        0.774939
H          -1.658826        1.695712        0.164480
C          -0.324817       -0.225086        1.198922
H           1.257268        1.469585        0.410996
C          -1.103828        1.446728       -0.998582
H          -1.746765        0.045811       -0.515927
H          -2.469536       -1.311943       -0.713371
16
reaction_000_gen_9_frame_0297
H          -0.466401       -1.422349       -0.715477
C          -0.049411       -2.138643        0.143013
H           1.153224       -1.332101       -0.275492
C           2.252871        0.195885        0.667322
H          -0.111702       -0.433391        1.361765
H           0.787132        0.893680       -1.477295
H           1.803991        0.631464        0.861145
C           0.619404       -2.215971       -0.247555
H           0.583658        1.361109       -0.488886
C          -0.631856        1.410758        0.714919
H          -1.771219        1.751521        0.159649
C          -0.316363       -0.194977        1.230043
H           1.376951        1.489318        0.418125
C          -1.156215        1.415711       -1.151568
H          -1.846662       -0.123796       -0.553121
H          -2.227400       -1.288218       -0.646587
16
reaction_000_gen_9_frame_0298
H          -0.328858       -1.493249       -0.820270
C          -0.078661       -2.081783        0.148432
H           1.139682       -1.381043       -0.257553
C           2.107104        0.246383        0.606732
H          -0.132374       -0.381341        1.298572
H           0.850645        1.032408       -1.521166
H           1.778984        0.615190        0.946366
C           0.597197       -2.179518       -0.239153
H           0.678930        1.402995       -0.450767
C          -0.596051        1.315675        0.711922
H          -1.699358        1.828881        0.278458
C          -0.370027       -0.296865        1.178992
H           1.422689        1.384174        0.496634
C          -1.235874        1.369728       -1.031127
H          -1.868095       -0.160774       -0.532774
H          -2.265933       -1.220861       -0.813297
16
reaction_000_gen_9_frame_0299
H          -0.404411       -1.399929       -0.806233
C           0.071873       -1.988134        0.169336
H           1.149463       -1.468256       -0.228749
C           1.909207        0.153074        0.569903
H          -0.036849       -0.425117        1.341936
H           0.867936        0.912721       -1.431492
H           1.704093        0.597738        0.867666
C           0.536197       -2.187943       -0.296122
H           0.720871        1.431101       -0.502773
C          -0.636870        1.182535        0.705455
H          -1.733273        1.921683        0.269359
C          -0.292690       -0.242768        1.265570
H           1.430646        1.370613        0.620390
C          -1.177916        1.392561       -1.065463
H          -1.899255       -0.147329       -0.604829
H          -2.209021       -1.102552       -0.873956
16
reaction_000_gen_9_frame_0300
H          -0.486266       -1.435837       -0.988603
C           0.153443       -1.958826        0.265197
H           1.118611       -1.321571       -0.259245
C           1.911759        0.129380        0.438213
H          -0.109723       -0.588857        1.385212
H           0.842124        0.943651       -1.389334
H           1.739899        0.497429        0.899602
C           0.546462       -2.134972       -0.215053
H           0.763802        1.459212       -0.458241
C          -0.640372        1.293853        0.751687
H          -1.802653        1.929060        0.283938
C          -0.123478       -0.278459        1.205333
H           1.358120        1.318605        0.570710
C          -1.147421        1.224190       -1.018648
H          -1.921017        0.049986       -0.662592
H          -2.203290       -1.126844       -0.808175
16
reaction_000_gen_9_frame_0301
H          -0.461097       -1.460261       -0.991910
C           0.170301       -2.030530        0.205904
H           1.252349       -1.330732       -0.200805
C           1.897899        0.120805        0.392752
H           0.017328       -0.543395        1.435118
H           0.829784        0.855133       -1.384788
H           1.635464        0.474703        0.898054
C           0.571667       -2.147624       -0.222116
H           0.665274        1.540695       -0.396652
C          -0.766296        1.326880        0.557023
H          -1.828313        1.880632        0.392246
C          -0.096106       -0.250639        1.377621
H           1.287928        1.426168        0.502527
C          -1.184513        1.285628       -1.081764
H          -1.990919       -0.003387       -0.751275
H          -2.000751       -1.144076       -0.731936
16
reaction_000_gen_9_frame_0302
H          -0.297380       -1.464088       -1.009602
C           0.105712       -2.029133        0.257980
H           1.189091       -1.348747       -0.161772
C           1.967181        0.239880        0.397262
H           0.061480       -0.615450        1.383173
H           0.913182        0.826588       -1.441955
H           1.715305        0.547995        0.905731
C           0.555598       -2.213609       -0.321172
H           0.646349        1.427803       -0.243932
C          -0.819764        1.346372        0.587158
H          -1.910379        1.956420        0.388550
C          -0.184261       -0.355151        1.457728
H           1.322245        1.459503        0.440042
C          -1.113263        1.308519       -1.031915
H          -1.992768        0.110132       -0.882583
H          -2.158327       -1.197033       -0.724692
16
reaction_000_gen_9_frame_0303
H          -0.159001       -1.470160       -0.880400
C           0.162049       -2.038815        0.345929
H           1.337299       -1.372895       -0.227427
C           1.900735        0.344817        0.417377
H           0.015604       -0.548643        1.347858
H           0.945722        0.677261       -1.278782
H           1.569075        0.304511        0.817602
C           0.472252       -2.277086       -0.399100
H           0.498189        1.431234       -0.303157
C          -0.746142        1.326345        0.592736
H          -1.925775        1.906185        0.296979
C          -0.091559       -0.282962        1.370483
H           1.305666        1.582059        0.561129
C          -0.969448        1.268111       -0.957177
H          -2.046251        0.138018       -0.930327
H          -2.268416       -0.987980       -0.773724
16
reaction_000_gen_9_frame_0304
H          -0.254989       -1.535127       -0.883496
C           0.085144       -2.070226        0.270038
H           1.229174       -1.335292       -0.318941
C           2.023593        0.398479        0.468352
H          -0.143574       -0.592108        1.359126
H           1.042392        0.588337       -1.254354
H           1.650134        0.458978        0.879189
C           0.466080       -2.276221       -0.328755
H           0.476379        1.417338       -0.276030
C          -0.650567        1.251806        0.512257
H          -1.904135        1.976145        0.393789
C          -0.088918       -0.184015        1.298457
H           1.354181        1.533044        0.592083
C          -0.944056        1.256978       -1.019195
H          -2.098278        0.062374       -0.890747
H          -2.242562       -0.950489       -0.801773
16
reaction_000_gen_9_frame_0305
H          -0.231623       -1.521675       -0.871278
C           0.148163       -2.026114        0.258721
H           1.227543       -1.442757       -0.296124
C           2.003360        0.393946        0.501849
H          -0.105782       -0.543371        1.314081
H           1.077158        0.536833       -1.271104
H           1.670312        0.526787        0.885845
C           0.539551       -2.304999       -0.377926
H           0.440565        1.333624       -0.258031
C          -0.806714        1.310563        0.444393
H          -1.911238        2.087564        0.465599
C          -0.141992       -0.285343        1.306054
H           1.375312        1.614722        0.537317
C          -0.922246        1.281917       -1.044615
H          -2.071743        0.033654       -0.797726
H          -2.290627       -0.995352       -0.797058
16
reaction_000_gen_9_frame_0306
H          -0.244750       -1.579766       -0.873226
C           0.213862       -2.036320        0.211577
H           1.231188       -1.439560       -0.247737
C           2.021916        0.386615        0.568633
H          -0.205195       -0.445597        1.326038
H           0.988422        0.558837       -1.271464
H           1.715104        0.482556        0.982155
C           0.658355       -2.220368       -0.444070
H           0.417037        1.263582       -0.277689
C          -0.867348        1.292782        0.307128
H          -1.864277        2.076656        0.582230
C          -0.138511       -0.338657        1.228109
H           1.300261        1.537341        0.585382
C          -0.793657        1.287188       -1.095862
H          -2.002301        0.099508       -0.831835
H          -2.430105       -0.924797       -0.749368
16
reaction_000_gen_9_frame_0307
H          -0.140492       -1.681487       -0.866785
C           0.146432       -2.105742        0.061436
H           1.296763       -1.329117       -0.234660
C           2.026843        0.422071        0.514982
H          -0.061229       -0.485987        1.271210
H           0.940654        0.401725       -1.252932
H           1.683083        0.509778        0.986588
C           0.716114       -2.258818       -0.251555
H           0.317858        1.340116       -0.308625
C          -0.832747        1.300922        0.339126
H          -1.989759        2.079714        0.548398
C          -0.280644       -0.328813        1.294163
H           1.354194        1.595316        0.527475
C          -0.820910        1.262253       -1.052598
H          -1.935667        0.152873       -0.751200
H          -2.420494       -0.874806       -0.825023
16
reaction_000_gen_9_frame_0308
H          -0.172429       -1.555025       -0.852560
C           0.168330       -2.097018        0.045007
H           1.349630       -1.344363       -0.199754
C           1.982871        0.330928        0.466320
H          -0.008504       -0.512769        1.339432
H           0.947426        0.335423       -1.309352
H           1.666713        0.546392        0.989485
C           0.714769       -2.172342       -0.147381
H           0.328247        1.291430       -0.296078
C          -0.826886        1.248451        0.326712
H          -1.991621        2.120872        0.573852
C          -0.289681       -0.371465        1.374026
H           1.346421        1.623592        0.547366
C          -0.804416        1.260316       -1.223629
H          -1.960425        0.233908       -0.786555
H          -2.450445       -0.938332       -0.846892
16
reaction_000_gen_9_frame_0309
H          -0.260595       -1.619058       -0.870537
C           0.153725       -1.959682       -0.005242
H           1.194023       -1.258690       -0.317682
C           1.953927        0.350102        0.453717
H           0.085995       -0.629807        1.396587
H           1.031485        0.383855       -1.298026
H           1.689550        0.482524        1.033778
C           0.734428       -2.137465       -0.193962
H           0.264303        1.284254       -0.325087
C          -0.921237        1.227515        0.321191
H          -2.010110        2.155632        0.593748
C          -0.218833       -0.353341        1.540149
H           1.469739        1.571279        0.571049
C          -0.839504        1.318450       -1.214087
H          -1.938452        0.116510       -0.775971
H          -2.388443       -0.932078       -0.909626
16
reaction_000_gen_9_frame_0310
H          -0.289378       -1.630086       -0.877254
C           0.247412       -2.001223       -0.078726
H           1.098591       -1.179902       -0.430125
C           1.996221        0.403427        0.337133
H           0.101846       -0.646291        1.399953
H           1.200286        0.380334       -1.314826
H           1.845432        0.321100        1.081018
C           0.703596       -2.036310       -0.176423
H           0.246482        1.340096       -0.318080
C          -1.061534        1.171535        0.516792
H          -2.149878        2.153584        0.589311
C          -0.258122       -0.327290        1.472503
H           1.536468        1.649536        0.568013
C          -0.883405        1.301831       -1.163546
H          -1.979216        0.107522       -0.797761
H          -2.354800       -1.007862       -0.807983
16
reaction_000_gen_9_frame_0311
H          -0.297463       -1.592234       -0.752946
C           0.307488       -1.915675        0.019573
H           1.231443       -1.225742       -0.373561
C           1.959177        0.402137        0.294374
H           0.118969       -0.636268        1.325891
H           1.136097        0.293537       -1.383191
H           1.880172        0.360733        1.072014
C           0.741335       -2.037221       -0.239232
H           0.234057        1.368544       -0.259282
C          -1.032819        1.110166        0.640331
H          -2.132078        2.192956        0.519183
C          -0.378091       -0.310392        1.468225
H           1.574771        1.743336        0.586241
C          -0.841725        1.303814       -1.149558
H          -2.011986        0.027676       -0.893695
H          -2.489346       -1.085367       -0.874368
16
reaction_000_gen_9_frame_0312
H          -0.243398       -1.577231       -0.695531
C           0.416140       -2.019500        0.080282
H           1.055947       -1.232346       -0.488897
C           1.907737        0.502605        0.290159
H           0.117306       -0.635553        1.369897
H           1.166329        0.247106       -1.433600
H           1.889287        0.319634        1.019651
C           0.791632       -1.981558       -0.391128
H           0.201930        1.385759       -0.339805
C          -1.211443        1.172274        0.696458
H          -2.171390        2.000407        0.549176
C          -0.364380       -0.209687        1.398028
H           1.596710        1.722149        0.714637
C          -0.704947        1.375736       -1.132074
H          -1.999409        0.061070       -0.847933
H          -2.448051       -1.130866       -0.789319
16
reaction_000_gen_9_frame_0313
H          -0.216554       -1.567833       -0.659094
C           0.359984       -2.011107        0.124961
H           1.094696       -1.177881       -0.476419
C           1.869992        0.676344        0.394580
H           0.091726       -0.756631        1.399998
H           1.147269        0.241901       -1.446106
H           1.909258        0.239678        1.112167
C           0.768869       -2.086568       -0.487947
H           0.244680        1.379697       -0.472352
C          -1.176905        1.140379        0.604358
H          -2.153789        2.107735        0.513827
C          -0.403543       -0.213333        1.356516
H           1.657725        1.931056        0.819666
C          -0.678211        1.330659       -1.022822
H          -2.091202       -0.028481       -0.984253
H          -2.423994       -1.205614       -0.777080
16
reaction_000_gen_9_frame_0314
H          -0.154629       -1.522592       -0.687198
C           0.397091       -1.939968        0.073262
H           1.214891       -1.103794       -0.481013
C           1.884968        0.665707        0.437312
H           0.021638       -0.764484        1.449157
H           1.236829        0.236122       -1.327026
H           1.895867        0.190136        1.149774
C           0.767087       -2.020998       -0.502409
H           0.143068        1.307003       -0.528745
C          -1.138819        1.100180        0.508589
H          -2.189731        2.008381        0.550027
C          -0.374590       -0.086067        1.291428
H           1.551473        1.878895        0.815174
C          -0.772581        1.350290       -0.988210
H          -2.021329       -0.031563       -0.961262
H          -2.461233       -1.267251       -0.798862
16
reaction_000_gen_9_frame_0315
H          -0.089151       -1.463859       -0.732032
C           0.367704       -1.904518        0.036081
H           1.175686       -0.937253       -0.475110
C           1.845152        0.581502        0.421829
H          -0.079816       -0.855590        1.417081
H           1.269603        0.313660       -1.267844
H           1.876137        0.138481        1.214961
C           0.778423       -2.036604       -0.393076
H           0.062049        1.276416       -0.609577
C          -1.049992        1.178815        0.515829
H          -2.104274        2.032830        0.720246
C          -0.427286       -0.175672        1.233654
H           1.656689        1.729683        0.819275
C          -0.831693        1.384949       -0.977692
H          -1.888373        0.044885       -1.075313
H          -2.560859       -1.307725       -0.848310
16
reaction_000_gen_9_frame_0316
H          -0.052107       -1.437760       -0.831608
C           0.342684       -1.862098        0.122077
H           1.226782       -0.913066       -0.423862
C           2.001245        0.579264        0.344632
H          -0.061783       -0.890858        1.317218
H           1.273143        0.186616       -1.177076
H           1.813870        0.121808        1.222080
C           0.748164       -1.975840       -0.357667
H          -0.053486        1.320394       -0.744137
C          -1.005914        1.324982        0.528533
H          -2.088048        2.019194        0.694753
C          -0.358710       -0.093010        1.292638
H           1.721366        1.685958        0.784541
C          -0.884416        1.384334       -0.947564
H          -1.933735       -0.027354       -1.036778
H          -2.689055       -1.422564       -0.787782
16
reaction_000_gen_9_frame_0317
H          -0.026283       -1.299251       -0.948668
C           0.309091       -1.928888        0.129651
H           1.316531       -0.805345       -0.320272
C           2.042202        0.636695        0.312113
H          -0.019199       -0.942621        1.138853
H           1.212324        0.128388       -1.180352
H           1.822919        0.116485        1.232124
C           0.695193       -1.798308       -0.454569
H          -0.106533        1.233737       -0.764795
C          -0.947147        1.311666        0.600208
H          -2.099249        1.877142        0.675470
C          -0.440282       -0.144073        1.217325
H           1.743067        1.679346        0.944681
C          -0.848414        1.339569       -0.888123
H          -1.897909        0.007152       -0.988755
H          -2.756312       -1.411694       -0.704890
16
reaction_000_gen_9_frame_0318
H          -0.096551       -1.290130       -1.010258
C           0.371655       -1.862753        0.072989
H           1.250774       -0.867951       -0.339091
C           2.039209        0.569710        0.278009
H          -0.006060       -0.937839        1.146326
H           1.221029        0.169297       -1.197766
H           1.874662        0.189261        1.302401
C           0.689750       -1.749076       -0.388435
H          -0.095782        1.086908       -0.716377
C          -0.919054        1.373777        0.686974
H          -2.191801        1.805741        0.633387
C          -0.460760       -0.188308        1.190383
H           1.736162        1.690853        0.938624
C          -0.880229        1.389831       -0.769250
H          -1.844568       -0.047483       -1.051912
H          -2.688435       -1.331836       -0.776005
16
reaction_000_gen_9_frame_0319
H          -0.021164       -1.355976       -1.000705
C           0.367102       -1.846532       -0.072940
H           1.081493       -0.995981       -0.343529
C           2.017896        0.498284        0.269286
H          -0.013081       -1.098655        1.266011
H           1.243124        0.209068       -1.170358
H           1.924921        0.282965        1.128311
C           0.817562       -1.723714       -0.404827
H          -0.082474        1.051273       -0.674395
C          -1.020589        1.607498        0.796198
H          -2.217481        1.744338        0.747366
C          -0.478939       -0.138155        1.122844
H           1.783852        1.755589        0.893678
C          -0.946708        1.365237       -0.736134
H          -1.827723        0.029529       -1.024190
H          -2.627789       -1.384770       -0.796616
16
reaction_000_gen_9_frame_0320
H           0.004686       -1.280058       -0.926494
C           0.425111       -1.866531       -0.114246
H           1.081134       -1.037842       -0.343318
C           2.062801        0.459787        0.335574
H           0.022453       -1.064006        1.228115
H           1.169275        0.364157       -1.324794
H           1.864918        0.260805        1.169813
C           0.747948       -1.708754       -0.348640
H          -0.186163        0.982239       -0.743683
C          -0.922000        1.548725        0.805016
H          -2.292199        1.761296        0.729973
C          -0.480536       -0.141036        1.065000
H           1.818701        1.720416        0.880423
C          -0.874598        1.231331       -0.545184
H          -1.843319        0.101387       -1.145787
H          -2.598211       -1.331916       -0.721766
16
reaction_000_gen_9_frame_0321
H           0.003562       -1.380395       -0.974421
C           0.383604       -1.983246       -0.090103
H           1.123564       -1.001716       -0.232107
C           1.976736        0.561344        0.237980
H           0.217301       -0.945811        1.249644
H           1.231650        0.314603       -1.328334
H           1.958513        0.291851        1.162571
C           0.645008       -1.702027       -0.372076
H          -0.216233        0.970134       -0.752186
C          -0.894128        1.485756        0.899384
H          -2.363524        1.742263        0.656637
C          -0.537926       -0.114563        1.209306
H           1.807242        1.762594        0.918415
C          -0.894648        1.210015       -0.676562
H          -1.783645        0.056519       -1.132248
H          -2.657074       -1.267321       -0.775899
16
reaction_000_gen_9_frame_0322
H           0.080075       -1.405348       -0.893919
C           0.374282       -1.963689       -0.136070
H           1.111479       -0.970405       -0.280150
C           1.923510        0.630272        0.321939
H           0.294227       -1.049939        1.214785
H           1.120908        0.196973       -1.239267
H           1.948105        0.236162        1.092089
C           0.747472       -1.779605       -0.339014
H          -0.146776        0.963392       -0.784506
C          -0.922045        1.468301        0.889047
H          -2.379143        1.882155        0.675432
C          -0.662053       -0.113102        1.176204
H           1.859786        1.858446        0.930653
C          -0.829864        1.194256       -0.815787
H          -1.940639        0.105199       -1.071476
H          -2.579323       -1.253067       -0.739960
16
reaction_000_gen_9_frame_0323
H           0.136065       -1.390483       -0.934238
C           0.474815       -2.002090       -0.124804
H           1.110682       -0.918954       -0.319982
C           1.914370        0.701535        0.188704
H           0.191993       -1.080203        1.282647
H           1.044424        0.220142       -1.242336
H           2.049545        0.271895        1.039362
C           0.651837       -1.692209       -0.360669
H          -0.125192        0.975424       -0.691492
C          -0.866554        1.309164        0.948172
H          -2.407725        1.880286        0.654744
C          -0.728632       -0.032972        1.100304
H           1.841488        1.853501        0.908978
C          -0.860754        1.226759       -0.772212
H          -1.928755       -0.056910       -0.952112
H          -2.497609       -1.264883       -0.725068
16
reaction_000_gen_9_frame_0324
H           0.084075       -1.392402       -0.908445
C           0.452052       -2.101256       -0.076709
H           1.099980       -0.866281       -0.382882
C           1.892171        0.770871        0.303939
H           0.209750       -1.108524        1.281324
H           1.035277        0.295889       -1.224117
H           1.946393        0.325609        0.990338
C           0.696562       -1.722752       -0.426916
H          -0.059852        0.945449       -0.768633
C          -0.942541        1.303061        0.983385
H          -2.393600        1.912207        0.726104
C          -0.632084       -0.184915        1.062070
H           1.834388        1.965307        0.850430
C          -0.868529        1.318117       -0.805194
H          -1.856534       -0.151752       -0.845868
H          -2.497509       -1.308631       -0.758827
16
reaction_000_gen_9_frame_0325
H           0.085029       -1.356748       -0.906292
C           0.410462       -2.197746       -0.044946
H           1.153389       -0.897505       -0.475706
C           1.908446        0.708030        0.330716
H           0.360198       -1.111999        1.314554
H           1.002033        0.292231       -1.294203
H           1.990577        0.352847        0.976597
C           0.606899       -1.664353       -0.476386
H          -0.148932        1.142114       -0.783057
C          -0.826398        1.288132        1.059643
H          -2.366956        1.761143        0.753548
C          -0.683176       -0.217271        1.075083
H           1.874178        2.005830        0.891446
C          -0.993663        1.400544       -0.853053
H          -1.803603       -0.163896       -0.827471
H          -2.568484       -1.341352       -0.740473
16
reaction_000_gen_9_frame_0326
H           0.134815       -1.194177       -0.888743
C           0.431794       -2.211896        0.011834
H           1.120395       -0.922981       -0.393175
C           1.922871        0.584855        0.254816
H           0.336657       -1.023949        1.438567
H           0.998758        0.296110       -1.369795
H           2.136405        0.336700        0.988867
C           0.574259       -1.670872       -0.544707
H          -0.205949        1.058105       -0.770300
C          -0.952838        1.279753        1.179401
H          -2.426382        1.838653        0.775806
C          -0.698298       -0.217740        1.151118
H           1.915533        1.929111        0.835028
C          -1.028417        1.410648       -0.907006
H          -1.777137       -0.170560       -1.008510
H          -2.482465       -1.321759       -0.753202
16
reaction_000_gen_9_frame_0327
H           0.143692       -1.247442       -0.876660
C           0.466845       -2.213053        0.079639
H           1.099785       -0.963993       -0.413151
C           1.933795        0.649388        0.310622
H           0.371145       -1.141979        1.391594
H           0.995199        0.206626       -1.433741
H           2.090897        0.351131        1.000714
C           0.641505       -1.544500       -0.551188
H          -0.206754        1.127871       -0.753414
C          -0.987420        1.258858        1.111658
H          -2.334410        1.817710        0.724386
C          -0.652221       -0.235810        1.140418
H           1.840014        1.902352        0.884506
C          -1.005617        1.491485       -0.906590
H          -1.927427       -0.146114       -0.902406
H          -2.469027       -1.312530       -0.806387
16
reaction_000_gen_9_frame_0328
H           0.040577       -1.264390       -0.875915
C           0.323467       -2.176952        0.007932
H           1.103220       -0.989782       -0.435242
C           1.979479        0.741594        0.292572
H           0.375533       -1.184720        1.569335
H           1.002357        0.228964       -1.420518
H           2.128748        0.283685        1.006529
C           0.637511       -1.489076       -0.594042
H          -0.160630        1.120268       -0.719711
C          -0.996666        1.157092        1.156232
H          -2.237978        1.823279        0.643628
C          -0.657432       -0.185950        1.140411
H           1.866982        1.870092        0.933815
C          -0.939721        1.416860       -0.873106
H          -1.921362       -0.034155       -0.909178
H          -2.544084       -1.316809       -0.922742
16
reaction_000_gen_9_frame_0329
H          -0.064327       -1.289333       -0.936532
C           0.249004       -2.154723        0.028046
H           1.154106       -0.956158       -0.456567
C           1.833594        0.730008        0.323877
H           0.447765       -1.177428        1.586510
H           0.967474        0.238093       -1.469393
H           2.152124        0.355394        0.892971
C           0.700098       -1.412919       -0.594945
H          -0.187338        0.985190       -0.634528
C          -0.995914        1.231185        1.154017
H          -2.165663        1.729672        0.663445
C          -0.692252       -0.298748        1.155094
H           1.847217        1.872487        0.901940
C          -0.939815        1.420112       -0.956000
H          -1.805770       -0.053349       -0.769916
H          -2.500304       -1.219482       -0.888018
16
reaction_000_gen_9_frame_0330
H          -0.010951       -1.406602       -0.905520
C           0.274883       -2.214516       -0.117282
H           1.231494       -0.978045       -0.398472
C           1.922729        0.709333        0.323422
H           0.375860       -1.204492        1.528756
H           0.885071        0.278621       -1.412524
H           2.120512        0.293922        0.850080
C           0.779709       -1.416047       -0.593011
H          -0.215438        1.128497       -0.641165
C          -1.079546        1.325991        1.209916
H          -2.023368        1.649292        0.609205
C          -0.750923       -0.292017        1.182422
H           1.835240        1.826652        0.937509
C          -1.068274        1.619543       -0.991512
H          -1.722150       -0.102740       -0.582652
H          -2.554847       -1.217393       -0.999172
16
reaction_000_gen_9_frame_0331
H          -0.063055       -1.443120       -1.015701
C           0.343481       -2.069182       -0.138081
H           1.215278       -0.967799       -0.197335
C           1.903865        0.646356        0.272997
H           0.357782       -1.230938        1.544472
H           0.856935        0.246087       -1.444032
H           1.960093        0.199420        0.858255
C           0.789947       -1.457734       -0.564279
H          -0.263396        1.127040       -0.620643
C          -1.148318        1.363845        1.216263
H          -1.921837        1.650057        0.592846
C          -0.626076       -0.271287        1.199832
H           1.957794        1.874935        0.975453
C          -1.026145        1.640273       -1.041335
H          -1.791924       -0.031116       -0.593385
H          -2.544423       -1.276839       -1.045327
16
reaction_000_gen_9_frame_0332
H          -0.089216       -1.474821       -1.006153
C           0.319134       -2.089026       -0.175108
H           1.276370       -0.988095       -0.283176
C           1.876634        0.577463        0.277233
H           0.365071       -1.205895        1.632569
H           0.887588        0.272160       -1.415962
H           1.966250        0.226349        0.911172
C           0.737593       -1.406267       -0.617116
H          -0.214085        1.083534       -0.575437
C          -1.284263        1.351553        1.215626
H          -1.932730        1.589400        0.504177
C          -0.630142       -0.386667        1.226463
H           2.056156        1.901748        0.932990
C          -1.051549        1.704022       -1.018247
H          -1.748300        0.003779       -0.540641
H          -2.534512       -1.159235       -1.068390
16
reaction_000_gen_9_frame_0333
H          -0.133660       -1.356082       -1.042152
C           0.348045       -2.038895       -0.086595
H           1.384720       -0.808495       -0.256445
C           1.913484        0.642770        0.214834
H           0.342607       -1.202766        1.807404
H           0.732591        0.245740       -1.486680
H           2.063509        0.075961        0.828680
C           0.696560       -1.476157       -0.634572
H          -0.261031        1.003501       -0.494683
C          -1.216807        1.361401        1.254810
H          -1.914000        1.538250        0.407657
C          -0.695518       -0.413290        1.406574
H           2.028029        1.940689        0.915449
C          -1.089108        1.609620       -1.035590
H          -1.721692        0.116446       -0.575469
H          -2.477728       -1.238693       -1.223222
16
reaction_000_gen_9_frame_0334
H          -0.094651       -1.334894       -1.042924
C           0.398953       -1.959486       -0.012804
H           1.327445       -0.762279       -0.258559
C           1.855888        0.561268        0.246474
H           0.286545       -1.313975        1.804367
H           0.790655        0.194777       -1.520480
H           2.021635        0.166179        0.852771
C           0.783770       -1.370355       -0.732986
H          -0.332458        1.053915       -0.404766
C          -1.223754        1.297159        1.321159
H          -1.863712        1.508299        0.373352
C          -0.719915       -0.379401        1.454370
H           2.008656        1.865538        0.832159
C          -1.023904        1.584089       -1.086056
H          -1.719099        0.184914       -0.598179
H          -2.496055       -1.295745       -1.227899
16
reaction_000_gen_9_frame_0335
H          -0.148601       -1.457771       -1.084899
C           0.414587       -1.906981        0.001444
H           1.218745       -0.702075       -0.237861
C           1.886555        0.590336        0.211442
H           0.404015       -1.365794        1.686569
H           0.821076        0.240843       -1.394663
H           2.000624        0.195684        0.905606
C           0.770162       -1.452087       -0.741186
H          -0.277989        1.052273       -0.457191
C          -1.323065        1.256344        1.353137
H          -1.822346        1.517265        0.384343
C          -0.733889       -0.405347        1.376545
H           2.040184        1.853666        0.933401
C          -0.973846        1.579562       -1.147757
H          -1.823624        0.241243       -0.614944
H          -2.452586       -1.237162       -1.173987
16
reaction_000_gen_9_frame_0336
H          -0.192252       -1.446401       -1.051326
C           0.514309       -1.908008        0.019535
H           1.246558       -0.710960       -0.174956
C           1.912099        0.591791        0.170312
H           0.365098       -1.349043        1.747602
H           0.844980        0.333533       -1.320762
H           1.998158        0.216395        0.893079
C           0.750429       -1.518086       -0.686746
H          -0.335069        1.019460       -0.377283
C          -1.332683        1.181466        1.324434
H          -1.790595        1.473807        0.313101
C          -0.658915       -0.441393        1.331349
H           2.035249        2.010289        0.890883
C          -0.998240        1.630114       -1.406724
H          -1.893443        0.171419       -0.527325
H          -2.465684       -1.254384       -1.145173
16
reaction_000_gen_9_frame_0337
H          -0.214682       -1.499410       -1.047675
C           0.573193       -1.922795       -0.105002
H           1.255701       -0.683086       -0.251026
C           1.737612        0.597766        0.025120
H           0.359640       -1.425680        1.704380
H           0.895115        0.338899       -1.258441
H           2.048327        0.222268        0.975473
C           0.820174       -1.599892       -0.536056
H          -0.373573        1.154023       -0.265564
C          -1.396414        1.130910        1.369806
H          -1.788621        1.433308        0.298442
C          -0.632568       -0.473493        1.375859
H           2.056953        1.962754        0.994897
C          -1.071597        1.735702       -1.531089
H          -1.886526        0.142802       -0.564686
H          -2.382734       -1.114076       -1.184438
16
reaction_000_gen_9_frame_0338
H          -0.253146       -1.464486       -0.961317
C           0.551140       -1.949779       -0.078510
H           1.230248       -0.759809       -0.280334
C           1.846767        0.543009        0.085710
H           0.326905       -1.370107        1.620729
H           0.977782        0.528277       -1.192059
H           1.982201        0.227939        1.019556
C           0.803683       -1.507782       -0.566156
H          -0.455011        1.223206       -0.290158
C          -1.413644        1.032745        1.356977
H          -1.682164        1.386297        0.280703
C          -0.618545       -0.518891        1.489335
H           1.950309        1.911957        1.021471
C          -0.963198        1.641932       -1.572036
H          -1.842061        0.188773       -0.625726
H          -2.441266       -1.113282       -1.308184
16
reaction_000_gen_9_frame_0339
H          -0.247016       -1.531767       -0.883485
C           0.456668       -1.850720       -0.055298
H           1.238378       -0.776018       -0.258060
C           1.858265        0.620473       -0.019180
H           0.372774       -1.415350        1.623828
H           0.913262        0.631891       -1.136035
H           2.009457        0.164504        0.998288
C           0.826265       -1.523848       -0.556231
H          -0.466384        1.159927       -0.309724
C          -1.414352        1.066686        1.359257
H          -1.639854        1.370281        0.278838
C          -0.552573       -0.505639        1.344560
H           1.855317        1.825209        0.984228
C          -0.808982        1.620519       -1.504854
H          -1.950641        0.253012       -0.645078
H          -2.450584       -1.109163       -1.221053
16
reaction_000_gen_9_frame_0340
H          -0.218467       -1.478281       -0.906902
C           0.422135       -1.875299       -0.103021
H           1.165493       -0.792819       -0.224325
C           1.912146        0.540750        0.010885
H           0.396642       -1.447990        1.718852
H           0.924500        0.575733       -1.196963
H           1.964368        0.161514        0.941443
C           0.718496       -1.535594       -0.602747
H          -0.352998        1.196290       -0.353659
C          -1.454842        1.051198        1.392888
H          -1.517992        1.396457        0.212325
C          -0.654650       -0.451008        1.370302
H           1.855323        1.685181        0.991925
C          -0.787566        1.652616       -1.447533
H          -1.939006        0.447805       -0.641572
H          -2.433581       -1.126551       -1.161898
16
reaction_000_gen_9_frame_0341
H          -0.105935       -1.476014       -0.876565
C           0.516884       -1.799129       -0.099883
H           1.042899       -0.641970       -0.262126
C           2.017749        0.591517        0.110958
H           0.334169       -1.554858        1.661058
H           0.862689        0.494106       -1.226684
H           1.960887        0.118125        0.846284
C           0.659493       -1.428386       -0.603220
H          -0.263769        1.131170       -0.374635
C          -1.367390        1.094422        1.354915
H          -1.619164        1.492658        0.211568
C          -0.679525       -0.597484        1.526423
H           1.868196        1.758268        0.968511
C          -0.871016        1.586582       -1.357445
H          -1.987082        0.364208       -0.644698
H          -2.369084       -1.133215       -1.234461
16
reaction_000_gen_9_frame_0342
H          -0.084790       -1.487407       -0.829973
C           0.543504       -1.740937       -0.095136
H           1.087804       -0.695706       -0.306525
C           1.863544        0.742335        0.111971
H           0.377827       -1.689070        1.692683
H           0.938233        0.560727       -1.212158
H           1.900101        0.054836        0.905464
C           0.614286       -1.410282       -0.541437
H          -0.309437        1.223569       -0.446481
C          -1.290812        1.155274        1.216603
H          -1.616627        1.460385        0.238005
C          -0.707085       -0.548880        1.652431
H           1.925318        1.674880        0.842805
C          -0.822851        1.497256       -1.351045
H          -2.005978        0.439308       -0.621840
H          -2.413037       -1.236288       -1.255368
16
reaction_000_gen_9_frame_0343
H          -0.039029       -1.552075       -0.748922
C           0.509862       -1.691551       -0.072193
H           1.079601       -0.707798       -0.358737
C           1.809853        0.755687        0.156655
H           0.324128       -1.798285        1.681437
H           0.960735        0.597566       -1.318736
H           1.927394        0.072035        0.920936
C           0.594865       -1.322332       -0.613888
H          -0.282833        1.258348       -0.384125
C          -1.146231        1.132447        1.179955
H          -1.706638        1.348478        0.191862
C          -0.717906       -0.533642        1.721577
H           1.976570        1.639191        0.789730
C          -0.835136        1.524960       -1.354555
H          -1.993336        0.462978       -0.638075
H          -2.461900       -1.186006       -1.152922
16
reaction_000_gen_9_frame_0344
H          -0.067935       -1.522820       -0.720406
C           0.530609       -1.753342       -0.003336
H           1.123475       -0.588345       -0.299060
C           1.791036        0.772963        0.127156
H           0.396957       -1.751123        1.673342
H           1.064556        0.507398       -1.408907
H           1.988049        0.062002        0.858927
C           0.593674       -1.360371       -0.612884
H          -0.242433        1.176231       -0.360292
C          -1.264986        1.068237        1.213045
H          -1.794297        1.413531        0.177839
C          -0.770715       -0.503154        1.708715
H           1.995985        1.660208        0.750157
C          -0.874925        1.464043       -1.314065
H          -1.950018        0.477622       -0.663718
H          -2.519033       -1.123080       -1.126513
16
reaction_000_gen_9_frame_0345
H           0.028775       -1.548925       -0.792196
C           0.571702       -1.913217       -0.049229
H           1.120433       -0.533216       -0.251444
C           1.726178        0.801518        0.106575
H           0.426724       -1.736520        1.653707
H           1.103101        0.430943       -1.497496
H           2.003395       -0.012609        0.922433
C           0.612932       -1.145302       -0.467090
H          -0.321282        1.184211       -0.502659
C          -1.129549        1.135838        1.265271
H          -1.862501        1.340637        0.245741
C          -0.847229       -0.402291        1.704324
H           1.869834        1.638437        0.758429
C          -0.769720        1.435257       -1.360307
H          -2.039430        0.526355       -0.614802
H          -2.493366       -1.201118       -1.121259
16
reaction_000_gen_9_frame_0346
H           0.036593       -1.480071       -0.849379
C           0.640424       -1.860168       -0.002631
H           1.056089       -0.545977       -0.293998
C           1.722428        0.791317        0.084392
H           0.337501       -1.696426        1.613637
H           1.080389        0.487404       -1.577569
H           1.970771        0.039014        0.986747
C           0.676096       -1.151467       -0.500610
H          -0.296226        1.245375       -0.308173
C          -1.100191        1.203226        1.312560
H          -1.938551        1.179418        0.259801
C          -0.808013       -0.352284        1.733882
H           1.868540        1.605659        0.744608
C          -0.815915        1.328253       -1.476702
H          -1.921024        0.415319       -0.557513
H          -2.508910       -1.208592       -1.169053
16
reaction_000_gen_9_frame_0347
H          -0.051479       -1.495232       -0.928179
C           0.645937       -1.787548       -0.029252
H           1.179101       -0.590182       -0.229025
C           1.827885        0.805366        0.059257
H           0.258178       -1.665151        1.596894
H           1.096520        0.558585       -1.583490
H           2.029445        0.190711        1.078288
C           0.749880       -1.225133       -0.457490
H          -0.321003        1.141332       -0.219049
C          -1.199234        1.191717        1.318308
H          -2.010551        1.242028        0.203337
C          -0.770183       -0.419293        1.618062
H           1.768025        1.592939        0.793492
C          -0.818391        1.316639       -1.536352
H          -1.938625        0.336368       -0.483036
H          -2.445506       -1.193147       -1.201763
16
reaction_000_gen_9_frame_0348
H           0.004647       -1.415479       -0.931974
C           0.565752       -1.749823       -0.041576
H           1.136397       -0.650613       -0.159376
C           1.813072        0.719726        0.061723
H           0.276494       -1.709539        1.687650
H           1.223455        0.431099       -1.478785
H           1.930430        0.325007        0.993229
C           0.723569       -1.282948       -0.589735
H          -0.356285        1.089195       -0.166332
C          -1.213979        1.209244        1.313890
H          -1.909735        1.194325        0.233601
C          -0.797042       -0.376635        1.523105
H           1.829165        1.618928        0.715487
C          -0.808117        1.425875       -1.523382
H          -1.914424        0.389755       -0.509290
H          -2.503397       -1.218119       -1.128235
16
reaction_000_gen_9_frame_0349
H           0.077681       -1.366031       -1.033156
C           0.642279       -1.783704       -0.212376
H           1.143808       -0.659987       -0.146156
C           1.780540        0.874864       -0.038227
H           0.288315       -1.784359        1.668856
H           1.177196        0.432453       -1.375547
H           1.981791        0.331923        1.004493
C           0.548511       -1.310273       -0.588148
H          -0.477290        1.076981       -0.047164
C          -1.181358        1.361549        1.296967
H          -1.911362        1.209611        0.205237
C          -0.799647       -0.449402        1.595577
H           1.810747        1.598946        0.637820
C          -0.869847        1.351688       -1.384944
H          -1.876726        0.322329       -0.424907
H          -2.334639       -1.206587       -1.158325
16
reaction_000_gen_9_frame_0350
H           0.179302       -1.399845       -1.075741
C           0.591953       -1.768244       -0.141579
H           1.193225       -0.669955       -0.269647
C           1.738163        1.008484        0.014465
H           0.177437       -1.905678        1.679387
H           1.192428        0.335265       -1.365610
H           1.955773        0.255791        0.876683
C           0.533675       -1.221823       -0.685433
H          -0.475045        1.092828        0.004712
C          -1.111086        1.357262        1.329211
H          -1.975780        1.121411        0.138703
C          -0.792606       -0.405046        1.659387
H           1.867016        1.744286        0.715359
C          -0.935459        1.390555       -1.369712
H          -1.884632        0.373001       -0.397132
H          -2.254364       -1.308292       -1.113051
16
reaction_000_gen_9_frame_0351
H           0.226775       -1.469708       -1.087860
C           0.606513       -1.833592       -0.258673
H           1.229323       -0.664862       -0.306157
C           1.692445        1.164097        0.040351
H           0.141274       -2.007186        1.574042
H           1.029460        0.338980       -1.375136
H           1.961998        0.224105        0.945041
C           0.367609       -1.187987       -0.701267
H          -0.511680        1.237686       -0.056155
C          -1.133184        1.347469        1.451863
H          -1.907965        0.987303        0.199521
C          -0.571729       -0.390582        1.559285
H           1.775337        1.780941        0.693839
C          -0.827427        1.422570       -1.269405
H          -1.807255        0.312407       -0.369165
H          -2.271493       -1.261642       -1.040125
16
reaction_000_gen_9_frame_0352
H           0.335138       -1.400320       -1.065562
C           0.595339       -1.782371       -0.296286
H           1.226189       -0.620288       -0.296069
C           1.601881        1.092323        0.022947
H           0.190073       -1.976605        1.454396
H           1.079771        0.231752       -1.378078
H           1.923503        0.213498        0.934161
C           0.352267       -1.131888       -0.642051
H          -0.579437        1.229792       -0.048017
C          -1.265673        1.363830        1.475755
H          -1.854029        0.892047        0.253302
C          -0.582525       -0.307512        1.470938
H           1.813882        1.806581        0.796002
C          -0.725148        1.473304       -1.233901
H          -1.800665        0.206965       -0.383255
H          -2.310567       -1.291107       -1.064284
16
reaction_000_gen_9_frame_0353
H           0.407091       -1.403129       -1.092006
C           0.621185       -1.756918       -0.301312
H           1.109083       -0.617071       -0.313147
C           1.685978        1.126454        0.164360
H           0.126705       -1.850136        1.370372
H           1.025168        0.170251       -1.333039
H           2.042909        0.239881        0.884177
C           0.361929       -0.964997       -0.651434
H          -0.498028        1.153024       -0.065896
C          -1.220545        1.352938        1.472679
H          -1.887182        0.755455        0.287528
C          -0.607393       -0.330635        1.415651
H           1.692855        1.692951        0.693194
C          -0.763254        1.511794       -1.132859
H          -1.834643        0.162488       -0.284121
H          -2.261859       -1.242354       -1.114147
16
reaction_000_gen_9_frame_0354
H           0.284391       -1.480524       -1.164132
C           0.645553       -1.752561       -0.355392
H           1.139424       -0.600747       -0.275430
C           1.794181        1.052748        0.191776
H           0.101248       -1.869008        1.388644
H           1.067222        0.133455       -1.301780
H           2.088911        0.284145        0.895695
C           0.361861       -0.865861       -0.656180
H          -0.438854        1.070879        0.002526
C          -1.191662        1.486850        1.537422
H          -1.952062        0.637785        0.216658
C          -0.588122       -0.308941        1.448607
H           1.626595        1.665175        0.624156
C          -0.816542        1.598933       -1.143974
H          -1.730342        0.184895       -0.255537
H          -2.391802       -1.237224       -1.153060
16
reaction_000_gen_9_frame_0355
H           0.351079       -1.515197       -1.205670
C           0.603616       -1.703277       -0.254493
H           1.149216       -0.583017       -0.403629
C           1.845838        1.102774        0.263466
H           0.161145       -1.685482        1.422547
H           1.049637        0.049381       -1.300506
H           2.122664        0.338443        0.832444
C           0.271268       -0.897464       -0.601814
H          -0.411546        1.137242        0.012145
C          -1.154083        1.330869        1.483058
H          -2.026291        0.636752        0.258947
C          -0.597520       -0.416788        1.390035
H           1.580023        1.669391        0.729232
C          -0.745348        1.556459       -1.101994
H          -1.832095        0.192291       -0.361606
H          -2.367605       -1.212379       -1.162162
16
reaction_000_gen_9_frame_0356
H           0.247211       -1.475655       -1.181255
C           0.720688       -1.742198       -0.175958
H           1.226862       -0.760628       -0.383234
C           1.913284        1.076425        0.201939
H           0.159069       -1.597767        1.453066
H           1.036272        0.126445       -1.234638
H           2.038998        0.266128        0.822559
C           0.293084       -0.994026       -0.672987
H          -0.288193        1.202477        0.113317
C          -1.330205        1.319890        1.418103
H          -2.136086        0.564481        0.232010
C          -0.581207       -0.347277        1.324435
H           1.509690        1.661265        0.699628
C          -0.680241        1.590471       -1.077691
H          -1.813858        0.255588       -0.339484
H          -2.315368       -1.145618       -1.199809
16
reaction_000_gen_9_frame_0357
H           0.206582       -1.475826       -1.244021
C           0.780620       -1.798880       -0.143403
H           1.362868       -0.681516       -0.263238
C           1.907617        1.012799        0.250713
H           0.098036       -1.565937        1.333478
H           1.063008        0.174634       -1.247965
H           2.095901        0.278804        0.732676
C           0.146141       -0.903658       -0.631291
H          -0.275605        1.200187        0.152347
C          -1.407066        1.221939        1.512131
H          -2.160710        0.555179        0.181603
C          -0.508508       -0.305338        1.238448
H           1.483863        1.615108        0.628879
C          -0.639738        1.646476       -1.047717
H          -1.853105        0.175543       -0.254741
H          -2.299904       -1.149515       -1.197899
16
reaction_000_gen_9_frame_0358
H           0.137688       -1.485138       -1.251124
C           0.877213       -1.732887       -0.054946
H           1.351394       -0.716409       -0.202288
C           1.894530        0.967666        0.301318
H           0.215963       -1.575107        1.214917
H           1.189446        0.085231       -1.160293
H           2.081166        0.229025        0.783422
C           0.082763       -0.873724       -0.580575
H          -0.284334        1.292703        0.094139
C          -1.570942        1.195227        1.467402
H          -2.151542        0.500137        0.241967
C          -0.432890       -0.237535        1.178788
H           1.411310        1.526897        0.588426
C          -0.695495        1.683250       -1.089918
H          -1.807081        0.256875       -0.366548
H          -2.299190       -1.116209       -1.164686
16
reaction_000_gen_9_frame_0359
H           0.101897       -1.397836       -1.216468
C           0.910183       -1.750324       -0.014547
H           1.303700       -0.659009       -0.311101
C           1.918528        0.933691        0.331734
H           0.252631       -1.573393        1.165406
H           1.216703        0.028950       -1.232230
H           2.227468        0.128394        0.863311
C           0.041946       -0.808722       -0.567938
H          -0.264636        1.277246        0.110735
C          -1.492805        1.206303        1.443048
H          -2.120072        0.416156        0.257057
C          -0.448107       -0.324191        1.141804
H           1.428327        1.514357        0.622561
C          -0.808459        1.728070       -1.126254
H          -1.979203        0.404807       -0.430402
H          -2.288100       -1.124500       -1.036715
16
reaction_000_gen_9_frame_0360
H           0.134436       -1.346309       -1.145189
C           0.940678       -1.740249       -0.009589
H           1.302635       -0.646517       -0.251547
C           1.775988        0.954174        0.227492
H           0.274287       -1.552219        1.126510
H           1.233551        0.013454       -1.311229
H           2.254696        0.129802        0.852492
C           0.111237       -0.842933       -0.610169
H          -0.203933        1.332693        0.091787
C          -1.549457        1.211122        1.508284
H          -2.116548        0.358792        0.120691
C          -0.480138       -0.329160        1.164481
H           1.381372        1.577214        0.654832
C          -0.842824        1.682908       -1.024549
H          -2.042688        0.416379       -0.397044
H          -2.173293       -1.219150       -0.997254
16
reaction_000_gen_9_frame_0361
H           0.158268       -1.341883       -1.128573
C           0.944652       -1.668356        0.043588
H           1.311244       -0.646637       -0.257063
C           1.796557        0.946604        0.272853
H           0.272268       -1.555016        1.108298
H           1.265620        0.000585       -1.297147
H           2.391790        0.093593        0.863752
C           0.013407       -0.953692       -0.624475
H          -0.246771        1.350640        0.090533
C          -1.502635        1.248834        1.364933
H          -2.097806        0.442963       -0.030364
C          -0.495702       -0.256598        1.048162
H           1.355995        1.583611        0.744070
C          -0.979868        1.690057       -1.036166
H          -2.057478        0.304408       -0.321895
H          -2.129542       -1.239113       -0.840508
16
reaction_000_gen_9_frame_0362
H           0.166628       -1.371103       -1.127814
C           1.039794       -1.647207        0.093461
H           1.322920       -0.582864       -0.286978
C           1.704773        1.055814        0.207836
H           0.188067       -1.477241        1.043910
H           1.261247       -0.128878       -1.314195
H           2.309466        0.166593        0.827137
C          -0.017463       -1.011620       -0.584008
H          -0.261327        1.348782        0.166400
C          -1.559771        1.251862        1.457907
H          -2.068290        0.348432       -0.067225
C          -0.488672       -0.155938        1.035985
H           1.493209        1.596492        0.636906
C          -0.824501        1.634403       -0.925619
H          -2.051171        0.227271       -0.347889
H          -2.214908       -1.254797       -0.815815
16
reaction_000_gen_9_frame_0363
H           0.111953       -1.333928       -1.125364
C           1.065251       -1.657825        0.056967
H           1.382935       -0.602947       -0.322701
C           1.654831        1.018559        0.073579
H           0.142028       -1.549692        1.105191
H           1.215641       -0.076877       -1.304900
H           2.385890        0.226972        0.914655
C          -0.060756       -0.894366       -0.579467
H          -0.272821        1.285213        0.205420
C          -1.594138        1.255782        1.435620
H          -2.011077        0.247461        0.023155
C          -0.441223       -0.127795        1.056901
H           1.438879        1.559422        0.614795
C          -0.749603        1.712317       -1.052541
H          -2.005941        0.199574       -0.353797
H          -2.261849       -1.261870       -0.747513
16
reaction_000_gen_9_frame_0364
H           0.133558       -1.293300       -1.135597
C           0.981994       -1.648407        0.128289
H           1.267418       -0.665809       -0.272444
C           1.546455        1.070942        0.051928
H           0.215798       -1.646838        1.050961
H           1.305345       -0.000838       -1.307407
H           2.418792        0.218289        0.793216
C           0.038116       -0.979201       -0.631128
H          -0.428172        1.281905        0.155081
C          -1.636520        1.340506        1.474867
H          -2.075256        0.245081        0.080610
C          -0.407176       -0.175564        0.969992
H           1.549348        1.635047        0.737874
C          -0.733450        1.723524       -0.964703
H          -1.989303        0.217295       -0.417075
H          -2.186948       -1.322631       -0.714464
16
reaction_000_gen_9_frame_0365
H           0.120753       -1.264261       -1.144066
C           0.948523       -1.715211        0.164369
H           1.279426       -0.659143       -0.316643
C           1.416845        1.007417        0.209676
H           0.321653       -1.766370        1.013458
H           1.295266        0.027161       -1.359441
H           2.424287        0.217948        0.843595
C           0.016332       -0.987287       -0.633689
H          -0.364781        1.356816        0.136484
C          -1.691592        1.509912        1.419185
H          -2.013007        0.408106        0.013121
C          -0.403617       -0.274609        0.906161
H           1.534074        1.594395        0.760814
C          -0.700075        1.730165       -0.953131
H          -1.988576        0.194553       -0.370770
H          -2.195511       -1.379592       -0.689122
16
reaction_000_gen_9_frame_0366
H           0.022263       -1.266113       -1.123945
C           0.850209       -1.747342        0.190900
H           1.275701       -0.732160       -0.235587
C           1.464517        0.999858        0.102509
H           0.308812       -1.775925        1.038934
H           1.249179        0.030674       -1.323481
H           2.445029        0.212249        0.893082
C           0.001399       -1.044118       -0.629145
H          -0.379235        1.386804        0.100833
C          -1.701857        1.441211        1.350376
H          -1.900836        0.487133        0.044780
C          -0.334496       -0.255203        0.915013
H           1.494918        1.640216        0.712142
C          -0.588072        1.683556       -0.912334
H          -1.958632        0.331978       -0.374282
H          -2.248900       -1.392819       -0.749795
16
reaction_000_gen_9_frame_0367
H           0.085024       -1.284260       -1.203384
C           0.739536       -1.738951        0.175695
H           1.242815       -0.720359       -0.129036
C           1.548726        0.897562        0.206010
H           0.348363       -1.861608        1.021983
H           1.268683        0.067659       -1.427083
H           2.371535        0.216056        0.941893
C          -0.053217       -1.032499       -0.711457
H          -0.382566        1.339520        0.127088
C          -1.744129        1.436221        1.345899
H          -1.957454        0.538177        0.067931
C          -0.323037       -0.230114        0.883184
H           1.461093        1.666912        0.776475
C          -0.516133        1.711586       -0.995043
H          -2.036614        0.386874       -0.288739
H          -2.052625       -1.392776       -0.791416
16
reaction_000_gen_9_frame_0368
H           0.113457       -1.292138       -1.224462
C           0.784234       -1.787984        0.148669
H           1.279889       -0.705721       -0.091984
C           1.627228        0.940044        0.268338
H           0.298058       -1.841657        1.124469
H           1.118799        0.028602       -1.438930
H           2.385823        0.122630        0.858709
C          -0.116220       -1.018446       -0.743129
H          -0.343377        1.380044        0.145784
C          -1.716371        1.442957        1.214838
H          -1.909796        0.599279        0.090528
C          -0.305480       -0.213168        0.810645
H           1.438592        1.677972        0.829641
C          -0.560754        1.712959       -0.908290
H          -2.051393        0.305156       -0.214933
H          -2.042690       -1.350528       -0.869892
16
reaction_000_gen_9_frame_0369
H           0.108348       -1.360918       -1.255067
C           0.720914       -1.824815        0.173960
H           1.267964       -0.642607       -0.111939
C           1.605949        0.989414        0.235724
H           0.286384       -1.836878        1.138982
H           1.186832       -0.000241       -1.410446
H           2.280911       -0.027728        0.922419
C          -0.173249       -0.922343       -0.798287
H          -0.268741        1.422366        0.186436
C          -1.715395        1.386344        1.154027
H          -1.907868        0.555386        0.128777
C          -0.255387       -0.224097        0.806763
H           1.429034        1.697327        0.795839
C          -0.581913        1.795940       -0.853599
H          -1.956528        0.294364       -0.248569
H          -2.027255       -1.301516       -0.865018
16
reaction_000_gen_9_frame_0370
H           0.131449       -1.338096       -1.349400
C           0.795103       -1.846075        0.131969
H           1.247486       -0.643674       -0.162436
C           1.566503        1.178396        0.224064
H           0.256052       -1.924600        1.195611
H           1.075003        0.089126       -1.370168
H           2.252612       -0.016551        0.969770
C          -0.155109       -0.942913       -0.830655
H          -0.236822        1.392774        0.186535
C          -1.663559        1.380946        1.080401
H          -1.835988        0.513978        0.119330
C          -0.207967       -0.240888        0.778195
H           1.386636        1.573528        0.836359
C          -0.695930        1.825593       -0.818736
H          -1.865063        0.189747       -0.225622
H          -2.050406       -1.191290       -0.765216
16
reaction_000_gen_9_frame_0371
H           0.075895       -1.395331       -1.332507
C           0.834307       -1.767319        0.083147
H           1.262500       -0.657548       -0.142490
C           1.554803        1.169394        0.255834
H           0.146818       -1.856153        1.175539
H           1.048907        0.099197       -1.453377
H           2.287723       -0.016691        1.036617
C          -0.138413       -0.871563       -0.781644
H          -0.299801        1.351894        0.121105
C          -1.533030        1.433738        1.151361
H          -1.708705        0.447961        0.157934
C          -0.235355       -0.190047        0.699501
H           1.294323        1.567025        0.760714
C          -0.616297        1.859215       -0.787275
H          -1.973756        0.093136       -0.240415
H          -1.999919       -1.266909       -0.704045
16
reaction_000_gen_9_frame_0372
H          -0.070621       -1.432651       -1.275244
C           0.891026       -1.751931        0.234893
H           1.315809       -0.623380       -0.071793
C           1.671600        1.179633        0.201727
H           0.063616       -1.848517        1.183423
H           0.932287        0.114586       -1.569265
H           2.192686        0.025353        0.916154
C          -0.141560       -0.980842       -0.832710
H          -0.211374        1.421468        0.105924
C          -1.555062        1.428851        1.196703
H          -1.715129        0.381177        0.188325
C          -0.219849       -0.169021        0.768641
H           1.264013        1.554762        0.634763
C          -0.582664        1.829699       -0.733187
H          -1.894831        0.103512       -0.305533
H          -1.939947       -1.232698       -0.642822
16
reaction_000_gen_9_frame_0373
H           0.025722       -1.574657       -1.264051
C           0.786615       -1.700437        0.309933
H           1.367182       -0.626292       -0.009231
C           1.705742        1.218860        0.196276
H           0.089899       -1.698315        1.080746
H           0.889361        0.129119       -1.556114
H           2.060068       -0.026623        0.910745
C          -0.098976       -0.952327       -0.853280
H          -0.130815        1.382876        0.110747
C          -1.540065        1.322354        1.219365
H          -1.838666        0.349922        0.188528
C          -0.170548       -0.199820        0.738612
H           1.269400        1.566453        0.594687
C          -0.610842        1.892225       -0.735399
H          -1.892583        0.154570       -0.303843
H          -1.911494       -1.237908       -0.627723
16
reaction_000_gen_9_frame_0374
H           0.047620       -1.615512       -1.280353
C           0.796850       -1.703849        0.322390
H           1.357984       -0.629164       -0.081186
C           1.705520        1.149853        0.207017
H           0.189467       -1.807123        1.131645
H           0.912267        0.195260       -1.594438
H           1.888679       -0.075510        0.940324
C          -0.119265       -1.013804       -0.918184
H          -0.064969        1.486852        0.167481
C          -1.514252        1.388022        1.186146
H          -1.748386        0.328106        0.117236
C          -0.180513       -0.154482        0.783993
H           1.178785        1.510518        0.632615
C          -0.658383        1.937535       -0.738151
H          -1.879529        0.165010       -0.305310
H          -1.911873       -1.161711       -0.571224
16
reaction_000_gen_9_frame_0375
H           0.224619       -1.663789       -1.197400
C           0.898857       -1.699143        0.451616
H           1.363268       -0.661679       -0.062020
C           1.730092        1.117657        0.146144
H           0.152826       -1.724830        1.061895
H           0.873862        0.179443       -1.482112
H           1.853777       -0.053966        1.022946
C          -0.029386       -1.036211       -0.954366
H          -0.194185        1.468665        0.126659
C          -1.482144        1.321537        1.159392
H          -1.802612        0.393729        0.083043
C          -0.136865       -0.168974        0.772413
H           1.120035        1.555480        0.676754
C          -0.690684        1.880117       -0.776106
H          -1.883011        0.180907       -0.463151
H          -1.998448       -1.088943       -0.565706
16
reaction_000_gen_9_frame_0376
H           0.198448       -1.656195       -1.213732
C           0.860453       -1.722967        0.380317
H           1.390622       -0.606279       -0.210013
C           1.808496        1.178401        0.138947
H           0.132341       -1.658649        1.094440
H           0.922781        0.065686       -1.380901
H           1.747546       -0.080369        1.014329
C           0.016288       -1.054031       -0.923656
H          -0.148324        1.412424        0.186178
C          -1.519693        1.377632        1.172463
H          -1.876472        0.428868        0.094418
C          -0.062853       -0.153715        0.804600
H           1.139873        1.654536        0.602033
C          -0.633791        1.868318       -0.673175
H          -1.921657        0.050422       -0.445530
H          -2.054059       -1.104082       -0.640717
16
reaction_000_gen_9_frame_0377
H           0.217774       -1.614336       -1.212946
C           0.860431       -1.764135        0.456676
H           1.425471       -0.651335       -0.285703
C           1.768689        1.104265        0.107674
H           0.218857       -1.627075        1.177680
H           0.877140       -0.063508       -1.409449
H           1.605646       -0.022647        0.982294
C           0.046818       -0.961622       -0.943369
H          -0.112980        1.518419        0.250423
C          -1.428062        1.387842        1.267153
H          -1.921895        0.548174        0.179269
C          -0.186121       -0.173662        0.800984
H           1.134207        1.564804        0.549668
C          -0.656379        1.880908       -0.703646
H          -1.871400        0.049774       -0.555087
H          -1.978197       -1.175866       -0.661623
16
reaction_000_gen_9_frame_0378
H           0.270837       -1.684661       -1.212045
C           0.823583       -1.692833        0.482127
H           1.450629       -0.712019       -0.246182
C           1.708777        1.067290        0.251901
H           0.113378       -1.558218        1.098468
H           0.907592       -0.050333       -1.505285
H           1.545327       -0.083171        0.958572
C           0.130187       -0.886775       -0.885084
H          -0.102528        1.464561        0.229189
C          -1.408219        1.394404        1.182313
H          -1.959501        0.442743        0.213497
C          -0.117703       -0.117092        0.751528
H           1.092624        1.567899        0.636331
C          -0.665586        1.982123       -0.700204
H          -1.809621        0.010800       -0.542039
H          -1.979777       -1.144718       -0.713089
16
reaction_000_gen_9_frame_0379
H           0.301201       -1.682566       -1.286450
C           0.880869       -1.617522        0.481380
H           1.439387       -0.751347       -0.148859
C           1.756737        1.018208        0.288433
H           0.099307       -1.459889        1.128015
H           0.917137       -0.169937       -1.530204
H           1.474984       -0.006371        0.916572
C           0.115717       -0.999313       -0.813238
H          -0.104930        1.523962        0.134855
C          -1.343051        1.386525        1.188136
H          -1.842126        0.490447        0.271360
C          -0.218702       -0.120601        0.827865
H           1.082441        1.534182        0.573692
C          -0.723344        1.947166       -0.766057
H          -1.789935       -0.008506       -0.575407
H          -2.045693       -1.084440       -0.690093
16
reaction_000_gen_9_frame_0380
H           0.282114       -1.560531       -1.336076
C           0.908369       -1.627643        0.440999
H           1.464307       -0.706072       -0.104760
C           1.914207        0.937739        0.187287
H           0.107998       -1.494387        1.237378
H           0.990079       -0.038913       -1.469218
H           1.545474       -0.057705        0.922304
C           0.076186       -0.981781       -0.833534
H          -0.233144        1.567657        0.202245
C          -1.229666        1.404696        1.204771
H          -1.824660        0.562424        0.238603
C          -0.369495       -0.188773        0.890280
H           1.058910        1.461568        0.617072
C          -0.686818        1.897162       -0.887086
H          -1.960572        0.025816       -0.532200
H          -2.043288       -1.201258       -0.778065
16
reaction_000_gen_9_frame_0381
H           0.308527       -1.573797       -1.303485
C           0.947104       -1.618260        0.502667
H           1.406829       -0.763342       -0.087137
C           1.855146        0.838321        0.252694
H           0.232540       -1.487604        1.187466
H           0.888325       -0.076572       -1.487035
H           1.482069       -0.041933        0.812730
C           0.101334       -0.963226       -0.850946
H          -0.297659        1.586851        0.171944
C          -1.318133        1.408544        1.160607
H          -1.880272        0.603817        0.275336
C          -0.328172       -0.257392        0.817791
H           1.164746        1.437124        0.619610
C          -0.569556        2.051023       -0.821607
H          -2.063639        0.035796       -0.497485
H          -1.929191       -1.179350       -0.753152
16
reaction_000_gen_9_frame_0382
H           0.249291       -1.583426       -1.414571
C           0.963629       -1.602947        0.512506
H           1.422016       -0.650960       -0.105331
C           1.789953        0.814279        0.228122
H           0.137981       -1.536626        1.233052
H           0.831533       -0.072571       -1.537558
H           1.520270        0.008432        0.797282
C           0.092325       -1.083823       -0.888891
H          -0.219639        1.429148        0.235436
C          -1.212426        1.450827        1.164181
H          -1.826376        0.633276        0.290463
C          -0.313381       -0.284405        0.873744
H           1.156585        1.530758        0.647619
C          -0.644659        2.001968       -0.813316
H          -1.992537        0.134838       -0.472723
H          -1.954565       -1.188769       -0.750014
16
reaction_000_gen_9_frame_0383
H           0.222109       -1.566246       -1.440756
C           0.938599       -1.524382        0.530688
H           1.417898       -0.633083       -0.074365
C           1.843556        0.772739        0.357471
H           0.075664       -1.603480        1.243250
H           0.874499       -0.022093       -1.535842
H           1.521938        0.004037        0.834329
C           0.134407       -1.148394       -1.051235
H          -0.224282        1.348097        0.256094
C          -1.206625        1.414383        1.104461
H          -1.880182        0.719861        0.233368
C          -0.283121       -0.329286        0.914981
H           1.191855        1.598235        0.651953
C          -0.670207        1.998239       -0.710537
H          -1.976889        0.174904       -0.584339
H          -1.979218       -1.203530       -0.729520
16
reaction_000_gen_9_frame_0384
H           0.146809       -1.500665       -1.501486
C           0.860768       -1.485790        0.510008
H           1.405906       -0.713797       -0.113009
C           1.853403        0.800749        0.322074
H           0.050952       -1.591828        1.233918
H           0.935627        0.007311       -1.587404
H           1.428170       -0.096515        0.837644
C           0.085804       -1.228195       -1.005746
H          -0.225463        1.359138        0.225540
C          -1.138015        1.420677        1.095015
H          -1.993362        0.716849        0.316007
C          -0.236030       -0.230312        0.979067
H           1.278057        1.666172        0.718732
C          -0.598865        1.896818       -0.574566
H          -1.870694        0.227377       -0.646961
H          -1.983068       -1.247988       -0.808834
16
reaction_000_gen_9_frame_0385
H           0.159928       -1.604181       -1.378504
C           0.781672       -1.423795        0.443084
H           1.457237       -0.702366       -0.164708
C           1.807312        0.805967        0.322337
H           0.065485       -1.519744        1.183456
H           0.991353        0.106658       -1.474339
H           1.515591       -0.031203        0.953104
C           0.078797       -1.243202       -1.027318
H          -0.134102        1.202262        0.150606
C          -1.157337        1.394596        1.152033
H          -1.999692        0.728984        0.385722
C          -0.191078       -0.227386        0.935342
H           1.193264        1.694100        0.723906
C          -0.567485        1.906102       -0.661969
H          -1.920043        0.215346       -0.748285
H          -2.080903       -1.302138       -0.794467
16
reaction_000_gen_9_frame_0386
H           0.070335       -1.665191       -1.539228
C           0.711202       -1.385340        0.483721
H           1.427050       -0.677439       -0.216519
C           1.776266        0.826486        0.306985
H           0.118422       -1.382468        1.102585
H           1.079977        0.129689       -1.434789
H           1.505872       -0.086721        0.958654
C           0.036875       -1.283312       -1.013160
H          -0.038137        1.223045        0.155452
C          -1.087283        1.431605        1.150867
H          -2.071232        0.680756        0.389878
C          -0.191967       -0.288598        1.063551
H           1.210034        1.723013        0.640859
C          -0.548589        1.847549       -0.630259
H          -1.919579        0.193242       -0.665326
H          -2.079246       -1.286315       -0.753269
16
reaction_000_gen_9_frame_0387
H           0.137088       -1.757549       -1.481863
C           0.836123       -1.382871        0.393399
H           1.403319       -0.756432       -0.217165
C           1.617367        0.785311        0.237059
H           0.116228       -1.294283        1.065668
H           1.037309        0.123523       -1.376750
H           1.450187       -0.133691        1.025076
C           0.002105       -1.326570       -0.992733
H          -0.038057        1.260371        0.146002
C          -1.077236        1.450299        1.158009
H          -1.997240        0.695162        0.375317
C          -0.178368       -0.241138        1.102632
H           1.165732        1.670153        0.577832
C          -0.569901        1.826561       -0.541014
H          -1.888170        0.268975       -0.695156
H          -2.016485       -1.187821       -0.776312
16
reaction_000_gen_9_frame_0388
H           0.226135       -1.850342       -1.467253
C           0.913667       -1.255168        0.416252
H           1.449269       -0.796791       -0.268093
C           1.637821        0.730897        0.286940
H           0.157170       -1.293692        1.120754
H           0.978816        0.036000       -1.455283
H           1.425414       -0.083012        0.999155
C          -0.017957       -1.369486       -0.996935
H           0.031074        1.240834        0.085931
C          -1.066577        1.439258        1.130559
H          -2.101888        0.711878        0.409778
C          -0.224934       -0.205050        1.150789
H           1.102704        1.676153        0.528426
C          -0.571680        1.876936       -0.576081
H          -1.928999        0.257244       -0.629820
H          -2.010033       -1.115658       -0.735120
16
reaction_000_gen_9_frame_0389
H           0.201323       -1.908727       -1.420523
C           1.018951       -1.254308        0.304256
H           1.435482       -0.728704       -0.165428
C           1.516220        0.629477        0.238957
H           0.108424       -1.325734        1.095249
H           1.011506       -0.043487       -1.547952
H           1.398444       -0.073087        1.001824
C          -0.020794       -1.468673       -0.956095
H           0.093938        1.288602        0.038323
C          -1.150337        1.553193        1.137958
H          -2.045628        0.636388        0.462951
C          -0.308727       -0.183310        1.188348
H           1.091763        1.674156        0.445321
C          -0.601795        1.856317       -0.521185
H          -1.812985        0.381046       -0.600293
H          -1.935786       -1.033147       -0.701710
16
reaction_000_gen_9_frame_0390
H           0.206958       -1.845371       -1.309580
C           1.048826       -1.278208        0.317303
H           1.431211       -0.760529       -0.244057
C           1.474768        0.606259        0.218355
H           0.069084       -1.281258        1.125672
H           0.962474       -0.030100       -1.611183
H           1.490324       -0.098040        1.007167
C           0.018020       -1.420501       -0.922298
H          -0.100902        1.359832        0.051821
C          -1.105278        1.463927        1.153825
H          -2.096476        0.559045        0.442957
C          -0.280158       -0.201950        1.238984
H           1.147043        1.620761        0.428494
C          -0.491069        2.041248       -0.463498
H          -1.799827        0.333066       -0.669628
H          -1.974997       -1.068180       -0.764333
16
reaction_000_gen_9_frame_0391
H           0.244476       -1.874376       -1.317653
C           0.973484       -1.212856        0.299294
H           1.455733       -0.750482       -0.204289
C           1.367656        0.612948        0.175946
H           0.049684       -1.318064        1.114093
H           0.947717        0.020722       -1.655123
H           1.517795       -0.197056        1.029314
C           0.013327       -1.371100       -0.961958
H          -0.177753        1.380160       -0.082251
C          -1.050081        1.362056        1.178392
H          -2.084127        0.536819        0.490074
C          -0.246310       -0.239032        1.413656
H           1.277635        1.599902        0.487151
C          -0.468480        2.078637       -0.500737
H          -1.807055        0.350389       -0.744852
H          -2.013702       -0.978667       -0.721056
16
reaction_000_gen_9_frame_0392
H           0.281133       -2.034115       -1.340534
C           1.073275       -1.187569        0.253028
H           1.417405       -0.717714       -0.119494
C           1.283175        0.600379        0.173443
H           0.098213       -1.349860        1.160737
H           1.018074        0.012183       -1.649128
H           1.553460       -0.133895        0.995990
C          -0.055275       -1.414869       -1.036983
H          -0.122320        1.299510       -0.161339
C          -1.019884        1.473948        1.246777
H          -2.152360        0.582747        0.583463
C          -0.179557       -0.155017        1.364997
H           1.219135        1.606655        0.592380
C          -0.573490        2.127695       -0.547797
H          -1.689736        0.313622       -0.744761
H          -2.151250       -1.023700       -0.770777
16
reaction_000_gen_9_frame_0393
H           0.350138       -2.026719       -1.325696
C           1.068912       -1.156535        0.330042
H           1.356902       -0.804649       -0.207036
C           1.166134        0.562895        0.230265
H           0.198038       -1.421028        1.015455
H           0.970958       -0.025090       -1.651015
H           1.544274       -0.066904        1.034026
C          -0.140509       -1.421650       -1.087654
H          -0.260435        1.342587       -0.044298
C          -0.884210        1.459135        1.243236
H          -2.089972        0.560980        0.551241
C          -0.176653       -0.048834        1.329286
H           1.239939        1.611527        0.618024
C          -0.496498        2.145791       -0.514736
H          -1.716316        0.341453       -0.840457
H          -2.130703       -1.052959       -0.680683
16
reaction_000_gen_9_frame_0394
H           0.287593       -2.036347       -1.331254
C           1.070054       -1.253897        0.356633
H           1.427096       -0.826610       -0.193814
C           1.079745        0.612888        0.193554
H           0.186530       -1.380025        0.903797
H           1.089877        0.002393       -1.620839
H           1.573733       -0.012741        1.034418
C          -0.179595       -1.432302       -1.098933
H          -0.255831        1.409296       -0.059579
C          -0.843475        1.462030        1.195634
H          -2.141810        0.571579        0.713851
C          -0.237328       -0.085310        1.243766
H           1.282563        1.618353        0.729435
C          -0.474669        2.149655       -0.613551
H          -1.821976        0.286098       -0.791873
H          -2.042510       -1.085061       -0.661247
16
reaction_000_gen_9_frame_0395
H           0.354907       -2.021448       -1.243068
C           0.948186       -1.212122        0.411456
H           1.299058       -0.940430       -0.260989
C           1.170170        0.588212        0.074868
H           0.280326       -1.371009        0.856126
H           1.012356       -0.004640       -1.623956
H           1.536219       -0.078827        1.004762
C          -0.111118       -1.494727       -1.116973
H          -0.180424        1.450554        0.055139
C          -0.720235        1.504528        1.289084
H          -2.204348        0.546933        0.705954
C          -0.317074       -0.060705        1.212944
H           1.296984        1.644623        0.719297
C          -0.501423        2.154257       -0.677569
H          -1.776431        0.351407       -0.819075
H          -2.087154       -1.056606       -0.588002
16
reaction_000_gen_9_frame_0396
H           0.432481       -2.113579       -1.202435
C           0.955574       -1.225882        0.320837
H           1.285069       -0.852842       -0.231784
C           1.127535        0.498778        0.004758
H           0.357252       -1.300061        0.882525
H           1.062994        0.020678       -1.502636
H           1.509659       -0.017169        0.836316
C          -0.071674       -1.465449       -1.103724
H          -0.188388        1.458297        0.062479
C          -0.737489        1.521705        1.277671
H          -2.319449        0.640260        0.744692
C          -0.318176        0.010188        1.152251
H           1.298394        1.539770        0.770623
C          -0.468503        2.081114       -0.679724
H          -1.727462        0.277708       -0.801036
H          -2.197817       -1.073516       -0.530811
16
reaction_000_gen_9_frame_0397
H           0.338313       -2.145990       -1.192583
C           0.967459       -1.343784        0.357180
H           1.304187       -0.861391       -0.176430
C           1.111985        0.478195       -0.038852
H           0.346304       -1.340981        0.869381
H           1.026130        0.105436       -1.502888
H           1.489084        0.060304        0.820979
C          -0.068663       -1.425649       -1.072463
H          -0.101858        1.516771        0.067836
C          -0.756001        1.496115        1.219522
H          -2.454536        0.583616        0.717642
C          -0.306763        0.096076        1.135089
H           1.299227        1.520870        0.815386
C          -0.470547        2.000268       -0.678299
H          -1.697199        0.383624       -0.762229
H          -2.027122       -1.123480       -0.579268
16
reaction_000_gen_9_frame_0398
H           0.270442       -2.110362       -1.247245
C           0.974914       -1.432633        0.365659
H           1.347198       -0.844739       -0.089127
C           1.098562        0.464024       -0.039955
H           0.500929       -1.335582        0.821463
H           1.083105        0.115483       -1.501617
H           1.308573        0.195382        0.719632
C          -0.047383       -1.484293       -1.057772
H          -0.115286        1.672773        0.061004
C          -0.863060        1.438731        1.169145
H          -2.413839        0.547163        0.735885
C          -0.273694        0.029548        1.122650
H           1.281208        1.598663        0.819512
C          -0.449995        1.932498       -0.590365
H          -1.680546        0.315113       -0.724964
H          -2.021130       -1.101770       -0.563905
16
reaction_000_gen_9_frame_0399
H           0.325270       -2.090699       -1.204524
C           0.937103       -1.415293        0.384476
H           1.354777       -0.911954       -0.065397
C           1.096708        0.415672       -0.104611
H           0.475270       -1.313200        0.814927
H           0.934551        0.123979       -1.451015
H           1.405049        0.173494        0.690244
C          -0.114008       -1.476774       -1.069110
H           0.021660        1.830761        0.226339
C          -0.926149        1.447963        1.233254
H          -2.397538        0.476588        0.670051
C          -0.182826        0.034769        1.134041
H           1.212784        1.518326        0.710806
C          -0.496936        1.963842       -0.546645
H          -1.610899        0.347413       -0.828390
H          -2.034816       -1.124888       -0.594446
16
reaction_000_gen_9_frame_0400
H           0.297517       -2.171238       -1.202791
C           0.925817       -1.435336        0.363886
H           1.310286       -0.868720       -0.133677
C           1.008178        0.483367       -0.085364
H           0.531471       -1.285885        0.881395
H           0.956496        0.001282       -1.422030
H           1.371226        0.171635        0.694108
C          -0.064919       -1.455693       -0.979102
H           0.096541        1.880778        0.177529
C          -0.934314        1.437420        1.173881
H          -2.457937        0.430463        0.612020
C          -0.255854       -0.020738        1.187028
H           1.207296        1.422506        0.761509
C          -0.477951        1.965940       -0.478226
H          -1.543233        0.449166       -0.818408
H          -1.970619       -1.004947       -0.731759
16
reaction_000_gen_9_frame_0401
H           0.271860       -2.232648       -1.147292
C           0.809253       -1.497826        0.356391
H           1.360870       -0.871754       -0.255938
C           1.014022        0.488585        0.015630
H           0.587951       -1.218529        0.791274
H           0.856351       -0.000331       -1.354906
H           1.376357        0.125914        0.627932
C          -0.102588       -1.414408       -1.054863
H           0.086136        1.832433        0.143241
C          -0.926201        1.546504        1.198798
H          -2.417453        0.417925        0.634293
C          -0.279909       -0.051336        1.183322
H           1.214654        1.363805        0.829027
C          -0.467639        1.949349       -0.344194
H          -1.487538        0.483368       -0.883524
H          -1.896125       -0.921050       -0.739190
16
reaction_000_gen_9_frame_0402
H           0.271593       -2.229846       -1.191951
C           0.753878       -1.563578        0.307398
H           1.382848       -0.840622       -0.279737
C           1.135592        0.652340        0.003941
H           0.621096       -1.377537        0.843481
H           0.902996       -0.007019       -1.310367
H           1.355448        0.118012        0.628399
C          -0.200231       -1.358074       -1.056605
H           0.092443        1.769734        0.181765
C          -0.958607        1.663400        1.107098
H          -2.377098        0.421164        0.545103
C          -0.235665       -0.051807        1.110253
H           1.161374        1.366799        0.825585
C          -0.486854        1.981158       -0.244468
H          -1.525337        0.422633       -0.791041
H          -1.893477       -0.966756       -0.678853
16
reaction_000_gen_9_frame_0403
H           0.299110       -2.310911       -1.252190
C           0.661272       -1.611682        0.274257
H           1.480303       -0.929713       -0.292260
C           1.084691        0.714904        0.021553
H           0.613620       -1.341582        0.888947
H           0.870493        0.031279       -1.339039
H           1.347140        0.185619        0.613809
C          -0.227779       -1.315698       -1.159106
H           0.166395        1.795768        0.148546
C          -0.993127        1.670700        1.144844
H          -2.352322        0.465962        0.654838
C          -0.297670       -0.167018        1.067219
H           1.197091        1.443076        0.800521
C          -0.528573        1.932290       -0.135543
H          -1.492201        0.414169       -0.702812
H          -1.828443       -0.977162       -0.733588
16
reaction_000_gen_9_frame_0404
H           0.316928       -2.332187       -1.213249
C           0.614342       -1.660495        0.296853
H           1.497313       -0.950394       -0.358185
C           1.046992        0.730793        0.004583
H           0.622666       -1.301952        0.916941
H           0.882455        0.049686       -1.332368
H           1.302208        0.114894        0.519868
C          -0.233263       -1.278600       -1.124230
H           0.176133        1.714679        0.144652
C          -0.893987        1.726220        1.248390
H          -2.395115        0.444267        0.619036
C          -0.315440       -0.175373        0.994452
H           1.284640        1.533539        0.824262
C          -0.594319        1.976159       -0.074450
H          -1.535067        0.341990       -0.751086
H          -1.776487       -0.933226       -0.715470
16
reaction_000_gen_9_frame_0405
H           0.303781       -2.377356       -1.167801
C           0.696708       -1.707150        0.302419
H           1.498802       -0.970885       -0.377374
C           1.042768        0.748528        0.095588
H           0.612214       -1.267489        0.915059
H           0.894566        0.072056       -1.295844
H           1.248004        0.099084        0.459082
C          -0.176212       -1.246056       -1.181862
H           0.116993        1.682903        0.224448
C          -0.919277        1.633367        1.281419
H          -2.407943        0.451925        0.611482
C          -0.345162       -0.087974        0.992426
H           1.221978        1.620057        0.796546
C          -0.523436        2.033352       -0.115349
H          -1.442813        0.192870       -0.742036
H          -1.820969       -0.877231       -0.798203
16
reaction_000_gen_9_frame_0406
H           0.181751       -2.393348       -1.248581
C           0.730902       -1.705789        0.275077
H           1.510281       -0.980553       -0.371068
C           1.019360        0.818111        0.059778
H           0.662813       -1.257253        0.933564
H           0.943031       -0.092466       -1.279525
H           1.266398        0.117713        0.444306
C          -0.102783       -1.223169       -1.254030
H           0.075833        1.698291        0.250766
C          -0.940078        1.692541        1.218552
H          -2.423096        0.458519        0.581117
C          -0.357826       -0.059111        0.897117
H           1.201942        1.628346        0.875702
C          -0.552755        2.022038        0.023236
H          -1.373627        0.092524       -0.652177
H          -1.842145       -0.816394       -0.753833
16
reaction_000_gen_9_frame_0407
H           0.232593       -2.445323       -1.270013
C           0.712704       -1.782275        0.293665
H           1.471775       -0.869699       -0.337799
C           0.985315        0.848939        0.086967
H           0.643130       -1.174807        0.865668
H           0.941804       -0.107874       -1.164508
H           1.267616        0.125858        0.482642
C          -0.118060       -1.131148       -1.325160
H           0.054156        1.700770        0.212069
C          -0.891300        1.594533        1.178238
H          -2.341440        0.472797        0.627631
C          -0.323653       -0.043501        0.816410
H           1.116073        1.558604        0.899422
C          -0.549427        1.936873        0.028224
H          -1.340500        0.104250       -0.582172
H          -1.860787       -0.787999       -0.811285
16
reaction_000_gen_9_frame_0408
H           0.267985       -2.292304       -1.358440
C           0.732331       -1.851619        0.326020
H           1.503338       -0.923093       -0.448840
C           0.918068        0.931655        0.149425
H           0.643138       -1.172132        0.812691
H           0.980871       -0.157241       -1.127195
H           1.298728        0.030724        0.535632
C          -0.128061       -1.154127       -1.420398
H           0.018844        1.634069        0.255753
C          -0.930760        1.621107        1.129147
H          -2.267689        0.505848        0.670978
C          -0.379349        0.027170        0.819796
H           1.043915        1.497358        0.894780
C          -0.570602        1.817672        0.030833
H          -1.263049        0.179591       -0.591985
H          -1.867708       -0.694679       -0.678197
16
reaction_000_gen_9_frame_0409
H           0.247832       -2.314291       -1.330427
C           0.714008       -1.936614        0.364720
H           1.509789       -0.897522       -0.497862
C           0.934979        0.888692        0.149210
H           0.680697       -1.066187        0.769140
H           1.025728       -0.214990       -1.079060
H           1.285689       -0.049880        0.463237
C          -0.116487       -1.249173       -1.320767
H          -0.099323        1.675635        0.302653
C          -0.977907        1.596728        1.028355
H          -2.258275        0.502482        0.745570
C          -0.311118       -0.016447        0.761313
H           1.077380        1.628325        0.834866
C          -0.635224        1.801771        0.093979
H          -1.285906        0.286701       -0.587523
H          -1.791864       -0.635230       -0.697405
16
reaction_000_gen_9_frame_0410
H           0.187246       -2.291158       -1.384024
C           0.771059       -2.007570        0.273739
H           1.376698       -0.969892       -0.486497
C           0.972093        0.799422        0.141750
H           0.757015       -1.038563        0.739460
H           1.122718       -0.124725       -1.007136
H           1.299507       -0.116553        0.410538
C          -0.131392       -1.251688       -1.353868
H          -0.174046        1.720471        0.441144
C          -0.967537        1.634739        0.991527
H          -2.212380        0.526746        0.765213
C          -0.259101        0.017311        0.736594
H           1.208471        1.677806        0.906866
C          -0.765592        1.758332        0.004076
H          -1.373083        0.333746       -0.528059
H          -1.811675       -0.668424       -0.651324
16
reaction_000_gen_9_frame_0411
H           0.185263       -2.359357       -1.493848
C           0.803296       -1.938733        0.232290
H           1.374964       -1.006696       -0.438002
C           1.028313        0.723782        0.163999
H           0.827347       -1.031304        0.729609
H           1.181320       -0.240368       -0.993712
H           1.326382       -0.089197        0.530836
C          -0.148928       -1.242809       -1.311988
H          -0.172413        1.766822        0.350086
C          -0.990572        1.701001        0.903710
H          -2.174284        0.506357        0.835740
C          -0.310091        0.014406        0.795648
H           1.168311        1.688697        0.879508
C          -0.752976        1.742523        0.046773
H          -1.475418        0.376325       -0.593269
H          -1.870516       -0.611450       -0.637379
16
reaction_000_gen_9_frame_0412
H           0.239494       -2.289242       -1.467229
C           0.853993       -1.916715        0.136652
H           1.397318       -1.003317       -0.352634
C           1.055092        0.819852        0.131285
H           0.787159       -1.063916        0.602191
H           1.118536       -0.238406       -0.931113
H           1.324824       -0.107893        0.533969
C          -0.116722       -1.242848       -1.208477
H          -0.293530        1.814870        0.368980
C          -1.003449        1.663803        0.820336
H          -2.230053        0.363875        0.835280
C          -0.372794        0.034385        0.801775
H           1.071126        1.647194        0.991026
C          -0.638827        1.619568       -0.017774
H          -1.325237        0.391454       -0.628760
H          -1.866929       -0.492664       -0.615508
16
reaction_000_gen_9_frame_0413
H           0.235133       -2.146225       -1.471434
C           0.860271       -1.895995        0.125038
H           1.321248       -0.940032       -0.380010
C           1.070372        0.774671        0.209056
H           0.744557       -1.087930        0.589544
H           1.122317       -0.269737       -0.875787
H           1.263475       -0.222688        0.539073
C          -0.097441       -1.272851       -1.273172
H          -0.258578        1.739283        0.327126
C          -1.024315        1.636733        0.867977
H          -2.173250        0.275351        0.816086
C          -0.290026        0.108393        0.815464
H           1.073781        1.591762        1.006011
C          -0.609277        1.686377        0.023232
H          -1.287132        0.400743       -0.697287
H          -1.951135       -0.377856       -0.620917
16
reaction_000_gen_9_frame_0414
H           0.282541       -2.208102       -1.468816
C           0.847258       -1.917402       -0.029586
H           1.443758       -0.872275       -0.414516
C           1.100253        0.735632        0.257152
H           0.685758       -1.127949        0.665677
H           1.178728       -0.250312       -0.983401
H           1.274893       -0.231035        0.556260
C          -0.161208       -1.328563       -1.282644
H          -0.388107        1.755643        0.404388
C          -1.068421        1.712038        0.904894
H          -2.158469        0.304966        0.667272
C          -0.389325        0.163982        0.851255
H           1.054670        1.723393        1.054809
C          -0.606013        1.618005        0.006052
H          -1.134004        0.340833       -0.633095
H          -1.962312       -0.418854       -0.555701
16
reaction_000_gen_9_frame_0415
H           0.222657       -2.305977       -1.497571
C           0.892294       -1.909497       -0.037285
H           1.529744       -0.866267       -0.443720
C           1.065561        0.832686        0.302140
H           0.674321       -1.181224        0.635958
H           1.241849       -0.188222       -0.966525
H           1.320337       -0.207057        0.529699
C          -0.162045       -1.312852       -1.224989
H          -0.466123        1.689888        0.323714
C          -1.062889        1.768459        0.962559
H          -2.317910        0.337159        0.651154
C          -0.404659        0.159967        0.892295
H           1.024734        1.630845        1.045071
C          -0.557020        1.611760       -0.047677
H          -1.042296        0.449975       -0.598089
H          -1.958555       -0.509642       -0.526734
16
reaction_000_gen_9_frame_0416
H           0.121766       -2.204492       -1.490183
C           0.901623       -1.930136       -0.040932
H           1.499357       -0.926717       -0.541450
C           1.123930        0.827937        0.292832
H           0.633834       -1.111230        0.669244
H           1.270314       -0.063977       -0.980806
H           1.392578       -0.249717        0.491731
C          -0.093154       -1.420883       -1.182796
H          -0.478457        1.666865        0.224592
C          -0.968069        1.799359        0.976275
H          -2.330372        0.218246        0.676167
C          -0.443844        0.207952        0.834985
H           1.028475        1.606408        1.093845
C          -0.605092        1.598880       -0.037139
H          -1.028667        0.494104       -0.504112
H          -2.024221       -0.512600       -0.482253
16
reaction_000_gen_9_frame_0417
H           0.203741       -2.295226       -1.479566
C           0.911441       -1.802095       -0.032905
H           1.549397       -0.960173       -0.562190
C           1.102136        0.790058        0.370444
H           0.670367       -1.127061        0.729924
H           1.249089       -0.032065       -1.097564
H           1.272351       -0.296914        0.477191
C          -0.145223       -1.479905       -1.183487
H          -0.485060        1.770332        0.275658
C          -1.009704        1.859997        0.904895
H          -2.331248        0.206735        0.629420
C          -0.446744        0.144305        0.802040
H           1.047382        1.680141        1.229874
C          -0.507959        1.630918       -0.134650
H          -1.089839        0.479443       -0.503894
H          -1.990126       -0.568490       -0.425189
16
reaction_000_gen_9_frame_0418
H           0.139774       -2.269427       -1.449804
C           0.945939       -1.877941       -0.109754
H           1.638454       -0.964176       -0.598987
C           1.044834        0.648845        0.396742
H           0.635657       -1.055280        0.725714
H           1.308894       -0.083827       -1.043872
H           1.300312       -0.232651        0.509351
C          -0.176441       -1.473020       -1.177798
H          -0.618340        1.734427        0.249390
C          -1.038881        1.986837        0.872509
H          -2.315674        0.247705        0.662111
C          -0.362466        0.098861        0.838120
H           1.041865        1.665038        1.129386
C          -0.587538        1.665910       -0.126211
H          -1.040624        0.468273       -0.428803
H          -1.915764       -0.559572       -0.448094
16
reaction_000_gen_9_frame_0419
H           0.079978       -2.254916       -1.386536
C           0.857960       -1.866981       -0.236132
H           1.707979       -1.059696       -0.562983
C           1.124376        0.726173        0.355966
H           0.584994       -1.088441        0.801611
H           1.466950       -0.070336       -1.034017
H           1.281311       -0.303710        0.517609
C          -0.177918       -1.492670       -1.161244
H          -0.596992        1.827662        0.196838
C          -1.049493        1.898911        0.815683
H          -2.363309        0.289555        0.578837
C          -0.313246        0.070327        0.781567
H           1.097161        1.625130        1.096691
C          -0.659783        1.660919       -0.008928
H          -1.104787        0.536571       -0.437879
H          -1.935179       -0.498498       -0.317083
16
reaction_000_gen_9_frame_0420
H           0.147803       -2.244254       -1.362895
C           0.985078       -1.831460       -0.332099
H           1.687851       -1.073411       -0.528505
C           1.107255        0.781333        0.308749
H           0.511906       -1.061954        0.784301
H           1.440316       -0.126438       -0.981772
H           1.307778       -0.241014        0.482128
C          -0.138797       -1.462083       -1.108873
H          -0.542624        1.745970        0.173710
C          -1.119133        1.855493        0.765372
H          -2.261343        0.272105        0.469965
C          -0.376396       -0.002948        0.833669
H           1.006885        1.596415        1.138574
C          -0.682725        1.751850        0.042992
H          -1.028044        0.523111       -0.521036
H          -2.045809       -0.482717       -0.164281
16
reaction_000_gen_9_frame_0421
H           0.171367       -2.227311       -1.506042
C           1.002508       -1.851613       -0.282808
H           1.650554       -1.102804       -0.625539
C           1.094504        0.771039        0.313667
H           0.530067       -1.200220        0.533081
H           1.489487       -0.057100       -0.998815
H           1.230397       -0.199823        0.628975
C          -0.147376       -1.469361       -1.073505
H          -0.439558        1.799603        0.144654
C          -1.157255        1.850742        0.784376
H          -2.253252        0.278055        0.528399
C          -0.336411        0.003368        0.843240
H           0.975100        1.551170        1.169942
C          -0.724294        1.731407        0.033146
H          -1.025024        0.526234       -0.402812
H          -2.060815       -0.403386       -0.089958
16
reaction_000_gen_9_frame_0422
H           0.248043       -2.262123       -1.590952
C           0.931894       -1.799078       -0.283114
H           1.633826       -1.146749       -0.710698
C           1.127211        0.819983        0.304648
H           0.480429       -1.189206        0.515320
H           1.535692       -0.049830       -1.002003
H           1.198943       -0.195950        0.678742
C          -0.129319       -1.472426       -0.970901
H          -0.401153        1.836431        0.122492
C          -0.961435        1.835038        0.876415
H          -2.302326        0.285493        0.622007
C          -0.372481       -0.029540        0.851540
H           0.980146        1.581161        1.142260
C          -0.815744        1.702243        0.032416
H          -1.047137        0.563425       -0.395973
H          -2.106589       -0.478873       -0.192200
16
reaction_000_gen_9_frame_0423
H           0.167448       -2.359001       -1.657216
C           0.832798       -1.763408       -0.388438
H           1.616928       -1.169332       -0.750439
C           1.107938        0.771327        0.272590
H           0.579333       -1.187456        0.568881
H           1.564355        0.017448       -0.916470
H           1.171378       -0.214130        0.694321
C          -0.138240       -1.440062       -0.959578
H          -0.326705        1.798160        0.064219
C          -0.954708        1.882459        0.969307
H          -2.267155        0.245025        0.576065
C          -0.450452        0.033316        0.734357
H           1.058966        1.599348        1.235981
C          -0.760277        1.717748        0.036931
H          -1.068193        0.536866       -0.310342
H          -2.133413       -0.468307       -0.170168
16
reaction_000_gen_9_frame_0424
H           0.111593       -2.330153       -1.690697
C           0.793837       -1.777613       -0.341692
H           1.478492       -1.099910       -0.771118
C           1.089903        0.691974        0.253511
H           0.511464       -1.157553        0.580258
H           1.579281        0.038612       -0.940968
H           1.123409       -0.282335        0.721015
C          -0.144121       -1.458485       -0.983751
H          -0.200653        1.889424        0.070432
C          -0.996381        1.941710        0.941570
H          -2.149266        0.260714        0.685046
C          -0.368370       -0.033420        0.783032
H           0.992854        1.643194        1.211615
C          -0.706806        1.591420       -0.016770
H          -0.998505        0.497115       -0.276651
H          -2.116731       -0.414694       -0.224833
16
reaction_000_gen_9_frame_0425
H           0.068793       -2.345347       -1.672287
C           0.772169       -1.824661       -0.380251
H           1.497777       -1.090952       -0.754211
C           0.989727        0.667155        0.180051
H           0.571299       -1.103308        0.609082
H           1.601304        0.033722       -0.937451
H           1.220134       -0.236062        0.765714
C          -0.174719       -1.289763       -1.070099
H          -0.236561        1.995983        0.097928
C          -0.999148        1.814483        0.981948
H          -2.120014        0.165175        0.734274
C          -0.286408       -0.044699        0.725147
H           0.919811        1.496847        1.263566
C          -0.711809        1.677918       -0.116499
H          -0.994805        0.489312       -0.194970
H          -2.117549       -0.405802       -0.231940
16
reaction_000_gen_9_frame_0426
H           0.024654       -2.438070       -1.649021
C           0.758796       -1.718013       -0.338389
H           1.427473       -1.123595       -0.820499
C           0.954026        0.704218        0.194376
H           0.535371       -1.062810        0.626267
H           1.573183        0.133472       -0.869659
H           1.284345       -0.348500        0.799507
C          -0.238543       -1.297428       -0.976869
H          -0.164879        2.036993        0.144695
C          -0.940228        1.743240        0.831391
H          -2.067920        0.163087        0.804620
C          -0.281196       -0.008234        0.644171
H           0.926976        1.414901        1.291928
C          -0.686038        1.743741       -0.025262
H          -0.965598        0.493143       -0.212238
H          -2.140422       -0.436145       -0.445018
16
reaction_000_gen_9_frame_0427
H           0.073646       -2.446237       -1.577380
C           0.793133       -1.851031       -0.308517
H           1.403401       -1.117384       -0.784824
C           0.937190        0.715178        0.152099
H           0.566041       -0.995013        0.559207
H           1.524521        0.107954       -0.927787
H           1.197760       -0.300060        0.892899
C          -0.254869       -1.227669       -1.012201
H          -0.244770        2.129542        0.091668
C          -0.940577        1.780182        0.910369
H          -2.090984        0.137726        0.724204
C          -0.257927       -0.020261        0.728437
H           0.861393        1.355941        1.247645
C          -0.609956        1.743740       -0.044302
H          -0.917573        0.491467       -0.273898
H          -2.040429       -0.504076       -0.377620
16
reaction_000_gen_9_frame_0428
H           0.023034       -2.375826       -1.543026
C           0.905183       -1.935013       -0.375942
H           1.402033       -1.147873       -0.794442
C           1.003546        0.851331        0.123450
H           0.648418       -0.978948        0.574450
H           1.607434        0.004763       -0.975682
H           1.123741       -0.392857        0.876273
C          -0.302948       -1.234193       -1.000273
H          -0.269370        2.089626        0.139438
C          -0.954508        1.835846        0.856422
H          -2.135994        0.222307        0.682463
C          -0.255428       -0.057169        0.759312
H           0.877563        1.276632        1.273708
C          -0.711848        1.784022       -0.057564
H          -0.988249        0.514678       -0.232922
H          -1.972609       -0.457327       -0.305665
16
reaction_000_gen_9_frame_0429
H          -0.046305       -2.430531       -1.489356
C           0.991201       -1.956941       -0.321549
H           1.315300       -1.174802       -0.744754
C           0.945366        0.932556        0.173377
H           0.585654       -0.880781        0.608947
H           1.571198       -0.113278       -1.042522
H           1.154237       -0.297636        0.850140
C          -0.301290       -1.200741       -0.951548
H          -0.188352        2.100104        0.149865
C          -0.908829        1.703654        0.771669
H          -2.113084        0.278790        0.679452
C          -0.271311       -0.080937        0.770708
H           0.826834        1.304946        1.247784
C          -0.646174        1.791566       -0.080588
H          -0.975756        0.554669       -0.208314
H          -1.938690       -0.530639       -0.413311
16
reaction_000_gen_9_frame_0430
H          -0.074044       -2.385976       -1.546566
C           0.944997       -1.955135       -0.312385
H           1.352307       -1.214032       -0.793530
C           1.028051        0.913473        0.229427
H           0.636192       -0.875853        0.649576
H           1.720772       -0.081611       -1.166907
H           1.208042       -0.259324        0.861177
C          -0.299485       -1.147124       -0.925445
H          -0.361532        2.027209        0.116627
C          -0.926841        1.688328        0.873758
H          -2.145839        0.372856        0.718886
C          -0.247275       -0.072976        0.750196
H           0.805266        1.384977        1.238079
C          -0.613019        1.745223       -0.158166
H          -0.999793        0.451409       -0.105712
H          -2.027798       -0.591445       -0.429014
16
reaction_000_gen_9_frame_0431
H          -0.018919       -2.398209       -1.568784
C           0.901342       -1.905687       -0.275831
H           1.304683       -1.344948       -0.804050
C           1.056313        0.901628        0.145488
H           0.493362       -0.859676        0.662359
H           1.715745       -0.019069       -1.221768
H           1.205476       -0.246602        0.905612
C          -0.302698       -1.221262       -0.953275
H          -0.440115        2.008564        0.172788
C          -0.918624        1.724691        0.869144
H          -2.040709        0.294985        0.742017
C          -0.287216       -0.082847        0.755086
H           0.825459        1.363378        1.230626
C          -0.541071        1.825045       -0.072974
H          -0.933900        0.493816       -0.100581
H          -2.019129       -0.533809       -0.485859
16
reaction_000_gen_9_frame_0432
H           0.088412       -2.390224       -1.582939
C           0.860263       -1.813174       -0.370605
H           1.311510       -1.350380       -0.811245
C           1.034950        0.958590        0.039588
H           0.528631       -0.766542        0.631667
H           1.738533       -0.097097       -1.118631
H           1.136973       -0.239355        0.897543
C          -0.294993       -1.271218       -0.926095
H          -0.550214        2.113818        0.138527
C          -0.932454        1.719072        0.860870
H          -2.036871        0.260853        0.769884
C          -0.298417       -0.140086        0.810616
H           0.864931        1.367557        1.298727
C          -0.537804        1.835001       -0.098768
H          -0.819453        0.471810       -0.041414
H          -2.093998       -0.658626       -0.497725
16
reaction_000_gen_9_frame_0433
H           0.156098       -2.509655       -1.527735
C           0.815713       -1.804622       -0.385523
H           1.247802       -1.252985       -0.774559
C           1.054519        0.941658        0.012790
H           0.546653       -0.755765        0.611889
H           1.718090       -0.135629       -1.131166
H           1.162181       -0.308895        0.873946
C          -0.314067       -1.324202       -0.956192
H          -0.453473        2.047061        0.123006
C          -1.021249        1.786724        0.827675
H          -1.967736        0.368186        0.770358
C          -0.389472       -0.095303        0.827182
H           0.898527        1.434519        1.268175
C          -0.566198        1.787897       -0.020354
H          -0.835151        0.535628        0.025081
H          -2.052236       -0.714618       -0.544571
16
reaction_000_gen_9_frame_0434
H           0.176300       -2.480983       -1.533787
C           0.787969       -1.823881       -0.447578
H           1.300680       -1.263420       -0.709546
C           0.968918        0.984156        0.020898
H           0.536832       -0.817429        0.613239
H           1.757003       -0.080227       -1.150369
H           1.037539       -0.320287        0.897059
C          -0.331850       -1.355916       -0.957607
H          -0.302080        2.028970        0.219414
C          -1.021485        1.911369        0.784162
H          -1.918045        0.416477        0.763784
C          -0.438304       -0.105216        0.799400
H           0.852212        1.456980        1.253867
C          -0.514313        1.794423       -0.004917
H          -0.780133        0.415265       -0.026774
H          -2.111243       -0.760281       -0.521245
16
reaction_000_gen_9_frame_0435
H           0.083603       -2.396299       -1.561711
C           0.829260       -1.828888       -0.544346
H           1.210587       -1.288576       -0.693532
C           0.975842        1.045501       -0.009940
H           0.424550       -0.711791        0.580886
H           1.779902       -0.057323       -1.154860
H           0.881196       -0.365083        0.986810
C          -0.329774       -1.406826       -1.042546
H          -0.292524        2.016876        0.231068
C          -0.892594        1.918136        0.940086
H          -1.928990        0.436273        0.663065
C          -0.339724       -0.189205        0.760440
H           0.831780        1.473024        1.316516
C          -0.363252        1.755728       -0.016580
H          -0.822520        0.327687        0.008747
H          -2.047341       -0.729234       -0.464105
16
reaction_000_gen_9_frame_0436
H           0.063162       -2.316334       -1.575715
C           0.768746       -1.871290       -0.518629
H           1.183007       -1.373460       -0.697308
C           0.984456        1.077279        0.043391
H           0.422321       -0.664595        0.609766
H           1.823595       -0.112782       -1.155334
H           0.896115       -0.345699        0.986784
C          -0.307537       -1.406450       -1.131705
H          -0.275853        1.986892        0.205462
C          -0.836039        1.903712        0.879532
H          -2.009333        0.473624        0.654341
C          -0.445475       -0.156336        0.792832
H           0.892799        1.461835        1.271524
C          -0.413976        1.634521       -0.007894
H          -0.776366        0.296937        0.046294
H          -1.969622       -0.587853       -0.403341
16
reaction_000_gen_9_frame_0437
H           0.098057       -2.349727       -1.615060
C           0.753139       -1.842151       -0.553569
H           1.230598       -1.458682       -0.650278
C           1.091630        1.110017        0.108760
H           0.464707       -0.609251        0.709191
H           1.827248       -0.109758       -1.157319
H           0.884869       -0.377548        1.002824
C          -0.376727       -1.377521       -1.151415
H          -0.324880        2.042981        0.210047
C          -0.840816        1.850719        0.878496
H          -2.056437        0.435316        0.629717
C          -0.431581       -0.133078        0.754084
H           0.769597        1.558792        1.192319
C          -0.475346        1.581466       -0.061008
H          -0.716835        0.265440       -0.052891
H          -1.897223       -0.587014       -0.243898
16
reaction_000_gen_9_frame_0438
H           0.089872       -2.306593       -1.607279
C           0.735603       -1.894685       -0.612651
H           1.325333       -1.451987       -0.695698
C           1.066564        1.132946        0.158255
H           0.483284       -0.621565        0.707567
H           1.807029       -0.027200       -1.211396
H           0.869493       -0.300726        0.985714
C          -0.383464       -1.462675       -1.155863
H          -0.326231        2.145545        0.264175
C          -0.809882        1.813194        0.825514
H          -2.022193        0.439505        0.592718
C          -0.450658       -0.244225        0.795359
H           0.731283        1.566718        1.313298
C          -0.457306        1.580113       -0.115332
H          -0.768421        0.246233       -0.020731
H          -1.890306       -0.614597       -0.223652
16
reaction_000_gen_9_frame_0439
H           0.061128       -2.354623       -1.637748
C           0.681991       -1.924139       -0.616313
H           1.282978       -1.459359       -0.677659
C           1.108828        1.258311        0.022441
H           0.419787       -0.616580        0.758690
H           1.808114       -0.085452       -1.193725
H           0.797470       -0.323558        0.983669
C          -0.375172       -1.468235       -1.115235
H          -0.293123        2.166732        0.327116
C          -0.725447        1.837792        0.803285
H          -2.040871        0.361860        0.662517
C          -0.402023       -0.238457        0.839762
H           0.833253        1.612020        1.303713
C          -0.514743        1.534700       -0.218657
H          -0.796291        0.278725        0.024181
H          -1.845879       -0.579737       -0.266036
16
reaction_000_gen_9_frame_0440
H           0.086702       -2.298741       -1.630525
C           0.676280       -1.912199       -0.542403
H           1.303446       -1.547470       -0.660885
C           1.039860        1.327670        0.103578
H           0.437858       -0.613861        0.708213
H           1.833722       -0.013467       -1.162320
H           0.781301       -0.317718        0.977595
C          -0.416170       -1.524513       -1.124745
H          -0.274446        2.176477        0.281327
C          -0.682887        1.682002        0.798522
H          -1.984957        0.354223        0.718419
C          -0.388746       -0.122367        0.802735
H           0.807957        1.615137        1.218548
C          -0.529162        1.594410       -0.120863
H          -0.781953        0.206535       -0.043515
H          -1.908806       -0.606118       -0.323682
16
reaction_000_gen_9_frame_0441
H           0.150401       -2.306811       -1.667736
C           0.723472       -1.852856       -0.563144
H           1.263648       -1.553099       -0.627379
C           0.928645        1.319321        0.133412
H           0.382443       -0.589311        0.675092
H           1.778798       -0.063641       -1.224852
H           0.759626       -0.392811        0.986478
C          -0.429213       -1.554236       -1.110645
H          -0.386200        2.178961        0.289344
C          -0.695962        1.684554        0.763410
H          -1.898764        0.388871        0.733723
C          -0.365996       -0.167542        0.744358
H           0.811727        1.633524        1.322253
C          -0.406676        1.525715       -0.058514
H          -0.771494        0.271521       -0.102036
H          -1.844454       -0.522161       -0.293762
16
reaction_000_gen_9_frame_0442
H           0.134255       -2.270915       -1.592529
C           0.744088       -1.877697       -0.550769
H           1.217536       -1.507190       -0.681845
C           0.953737        1.257926        0.081296
H           0.374237       -0.502543        0.701302
H           1.799585       -0.074227       -1.226641
H           0.768483       -0.384658        0.938986
C          -0.436074       -1.579444       -1.098892
H          -0.379463        2.209801        0.294430
C          -0.735155        1.668321        0.842489
H          -1.889277        0.377261        0.733119
C          -0.393975       -0.173804        0.674963
H           0.751527        1.587107        1.320942
C          -0.375672        1.533593       -0.051651
H          -0.724362        0.262175       -0.043992
H          -1.809470       -0.525706       -0.341208
16
reaction_000_gen_9_frame_0443
H           0.206420       -2.228598       -1.542912
C           0.709989       -1.901641       -0.568660
H           1.248286       -1.426600       -0.607752
C           0.907092        1.340258        0.055747
H           0.398483       -0.434550        0.668897
H           1.861199       -0.096522       -1.197729
H           0.735868       -0.477617        0.958377
C          -0.449351       -1.645528       -1.087638
H          -0.427997        2.181565        0.248617
C          -0.711827        1.628853        0.856412
H          -1.873910        0.353714        0.658323
C          -0.405269       -0.121548        0.619901
H           0.769061        1.526792        1.284525
C          -0.377434        1.479528        0.077380
H          -0.745319        0.283518       -0.076231
H          -1.845291       -0.461624       -0.347255
16
reaction_000_gen_9_frame_0444
H           0.292801       -2.217429       -1.605029
C           0.741410       -1.926557       -0.590231
H           1.278899       -1.329692       -0.598268
C           0.778900        1.311893        0.041388
H           0.384934       -0.450792        0.599238
H           1.882478       -0.163165       -1.267826
H           0.725345       -0.537203        0.946508
C          -0.384767       -1.615553       -0.998642
H          -0.494763        2.198054        0.319246
C          -0.746942        1.709755        0.922195
H          -1.862906        0.297641        0.598001
C          -0.418379       -0.133048        0.585773
H           0.797771        1.480816        1.280890
C          -0.376510        1.545690        0.073185
H          -0.763931        0.345681        0.033509
H          -1.834339       -0.516091       -0.339938
16
reaction_000_gen_9_frame_0445
H           0.363508       -2.196129       -1.599766
C           0.746092       -1.877282       -0.558253
H           1.248894       -1.355241       -0.509382
C           0.621126        1.311051        0.084980
H           0.318689       -0.367145        0.617942
H           1.877485       -0.166915       -1.260400
H           0.735004       -0.412111        0.895052
C          -0.399608       -1.621589       -1.087067
H          -0.576233        2.101623        0.396927
C          -0.647324        1.784292        0.950560
H          -1.849723        0.211920        0.503880
C          -0.347433       -0.189713        0.604644
H           0.809309        1.445281        1.243134
C          -0.357203        1.584541        0.071942
H          -0.711851        0.372030        0.025658
H          -1.830734       -0.624614       -0.379850
16
reaction_000_gen_9_frame_0446
H           0.318864       -2.131208       -1.581614
C           0.769622       -1.927527       -0.587063
H           1.230787       -1.398061       -0.517790
C           0.728369        1.200020        0.085338
H           0.333615       -0.390124        0.534371
H           1.976746       -0.072659       -1.158719
H           0.680774       -0.315600        0.831078
C          -0.399812       -1.640672       -1.138811
H          -0.609671        2.114066        0.463895
C          -0.614301        1.734107        0.949795
H          -1.878386        0.217472        0.496966
C          -0.378593       -0.177751        0.605726
H           0.747544        1.519036        1.254178
C          -0.408886        1.580743        0.101040
H          -0.730235        0.333192        0.016597
H          -1.766437       -0.645036       -0.354989
16
reaction_000_gen_9_frame_0447
H           0.324763       -2.090702       -1.575006
C           0.826435       -1.912482       -0.526977
H           1.278576       -1.365015       -0.686072
C           0.790404        1.174621        0.128448
H           0.246298       -0.444623        0.547518
H           2.041655       -0.020057       -1.194128
H           0.693766       -0.336868        0.822302
C          -0.315982       -1.596497       -1.152143
H          -0.610649        2.060586        0.447775
C          -0.671008        1.602574        0.998168
H          -1.880355        0.274930        0.516540
C          -0.380099       -0.234952        0.675446
H           0.683128        1.464216        1.234393
C          -0.417223        1.562588        0.120699
H          -0.816574        0.416226        0.042249
H          -1.793134       -0.554544       -0.399212
16
reaction_000_gen_9_frame_0448
H           0.374664       -2.103634       -1.561280
C           0.821212       -1.931691       -0.534810
H           1.187575       -1.367207       -0.645905
C           0.809020        1.062932        0.136848
H           0.270756       -0.468644        0.525465
H           1.945806        0.016450       -1.164820
H           0.747911       -0.339867        0.798756
C          -0.366771       -1.600162       -1.204728
H          -0.672422        2.075433        0.384719
C          -0.582064        1.660037        0.931281
H          -1.857165        0.387864        0.612760
C          -0.348902       -0.333427        0.787105
H           0.723750        1.462038        1.243200
C          -0.456686        1.599479        0.049334
H          -0.836699        0.393256        0.008604
H          -1.759986       -0.512858       -0.366529
16
reaction_000_gen_9_frame_0449
H           0.369809       -2.074763       -1.556876
C           0.732420       -1.869846       -0.580923
H           1.188449       -1.371444       -0.636867
C           0.859386        1.118747        0.115401
H           0.299879       -0.444015        0.568160
H           2.021283        0.033512       -1.097615
H           0.718649       -0.344889        0.755826
C          -0.402707       -1.659323       -1.280183
H          -0.627095        2.031812        0.416426
C          -0.571270        1.629300        0.959536
H          -1.952248        0.395419        0.580727
C          -0.266122       -0.353206        0.918331
H           0.708522        1.404940        1.326460
C          -0.499594        1.574677       -0.059942
H          -0.868229        0.457064       -0.048855
H          -1.711132       -0.527986       -0.379607
16
reaction_000_gen_9_frame_0450
H           0.353416       -2.059120       -1.559880
C           0.778371       -1.902160       -0.571642
H           1.225940       -1.423198       -0.712252
C           0.836068        1.106068        0.188072
H           0.262226       -0.324608        0.537905
H           2.006901        0.051179       -1.091510
H           0.696784       -0.275500        0.824767
C          -0.427437       -1.611580       -1.328220
H          -0.546890        1.975331        0.422931
C          -0.635446        1.688591        0.854876
H          -1.946468        0.337980        0.499372
C          -0.192951       -0.335499        1.031026
H           0.685322        1.332241        1.332696
C          -0.472640        1.500680       -0.126746
H          -0.900460        0.373081       -0.030816
H          -1.722738       -0.433485       -0.270578
16
reaction_000_gen_9_frame_0451
H           0.333882       -2.047004       -1.508486
C           0.798946       -1.970106       -0.569148
H           1.203837       -1.382442       -0.813962
C           0.795929        1.053679        0.165340
H           0.286995       -0.269764        0.588317
H           2.016713        0.057366       -0.962067
H           0.592726       -0.292746        0.799846
C          -0.455781       -1.573311       -1.410445
H          -0.616807        1.911405        0.366544
C          -0.562134        1.757094        0.871043
H          -1.849248        0.375934        0.499327
C          -0.116916       -0.323569        0.991945
H           0.717930        1.346115        1.339217
C          -0.577399        1.494787       -0.061235
H          -0.869026        0.324793       -0.062640
H          -1.699646       -0.462234       -0.233596
16
reaction_000_gen_9_frame_0452
H           0.397526       -2.062156       -1.611632
C           0.729830       -2.014543       -0.515594
H           1.191370       -1.363767       -0.797474
C           0.847751        1.140801        0.129196
H           0.264991       -0.306469        0.560180
H           2.033934        0.021921       -0.941800
H           0.526155       -0.226992        0.794356
C          -0.506506       -1.544848       -1.295808
H          -0.702497        1.917661        0.291044
C          -0.565945        1.788355        0.934340
H          -1.837023        0.287075        0.521412
C          -0.075974       -0.299019        0.935957
H           0.745491        1.283751        1.225342
C          -0.525191        1.519371       -0.061385
H          -0.808879        0.355780        0.002080
H          -1.715033       -0.496922       -0.170214
16
reaction_000_gen_9_frame_0453
H           0.448245       -2.025366       -1.587036
C           0.662301       -2.080151       -0.453283
H           1.179775       -1.296224       -0.716460
C           0.879560        1.121978        0.104842
H           0.298232       -0.299079        0.648578
H           2.006380        0.012203       -1.020923
H           0.459659       -0.238816        0.824579
C          -0.487358       -1.520086       -1.370327
H          -0.677455        1.873571        0.229887
C          -0.562094        1.796706        0.905922
H          -1.758752        0.319594        0.593940
C          -0.083011       -0.298756        0.950432
H           0.647893        1.189515        1.211744
C          -0.498038        1.604608       -0.069885
H          -0.781608        0.302984       -0.073229
H          -1.733728       -0.462681       -0.178784
16
reaction_000_gen_9_frame_0454
H           0.489297       -2.108820       -1.646609
C           0.619413       -2.096019       -0.529032
H           1.152696       -1.234309       -0.643813
C           0.887053        1.147943        0.054286
H           0.244188       -0.239795        0.683620
H           2.033586        0.025416       -1.021377
H           0.461019       -0.319067        0.728679
C          -0.589102       -1.504000       -1.391247
H          -0.705295        1.819320        0.204551
C          -0.531845        1.875799        0.848038
H          -1.787435        0.216349        0.671254
C          -0.081173       -0.270601        0.979748
H           0.718898        1.216768        1.221481
C          -0.501448        1.663717        0.058677
H          -0.747967        0.255546       -0.059550
H          -1.661886       -0.448246       -0.158707
16
reaction_000_gen_9_frame_0455
H           0.435683       -2.136976       -1.645098
C           0.584855       -2.031625       -0.565304
H           1.234850       -1.274959       -0.673065
C           0.933987        1.223353        0.054046
H           0.240932       -0.211861        0.647090
H           2.070027       -0.000250       -1.029667
H           0.477625       -0.291209        0.803600
C          -0.577856       -1.404193       -1.361864
H          -0.768290        1.781966        0.164602
C          -0.509247        1.798206        0.907942
H          -1.883394        0.135117        0.530363
C          -0.139752       -0.329817        0.974713
H           0.757307        1.195947        1.241977
C          -0.596605        1.639477        0.120727
H          -0.768338        0.305086       -0.000652
H          -1.491784       -0.398261       -0.169410
16
reaction_000_gen_9_frame_0456
H           0.417366       -2.098953       -1.609603
C           0.610384       -1.969586       -0.575491
H           1.228548       -1.265137       -0.639097
C           0.966635        1.252263       -0.021152
H           0.261005       -0.235342        0.641216
H           2.126462       -0.027457       -0.924614
H           0.438219       -0.291333        0.782704
C          -0.603240       -1.356674       -1.267703
H          -0.596210        1.744685        0.152297
C          -0.524096        1.777974        0.924907
H          -1.906168        0.198490        0.474071
C          -0.166353       -0.447094        0.888416
H           0.641337        1.218062        1.280890
C          -0.586431        1.631697        0.087140
H          -0.741872        0.323329       -0.046034
H          -1.565586       -0.454924       -0.147947
16
reaction_000_gen_9_frame_0457
H           0.444933       -2.109099       -1.608777
C           0.541330       -2.037446       -0.641592
H           1.220194       -1.316021       -0.661856
C           0.868625        1.263290       -0.029731
H           0.257883       -0.220285        0.649261
H           2.135744        0.027150       -0.881320
H           0.398381       -0.281415        0.726794
C          -0.578746       -1.341241       -1.199942
H          -0.574977        1.766962        0.111291
C          -0.511338        1.807742        0.947021
H          -1.897815        0.135084        0.556007
C          -0.051164       -0.421003        0.919499
H           0.660129        1.184857        1.343497
C          -0.614632        1.702687        0.105318
H          -0.726647        0.282258       -0.075118
H          -1.571898       -0.443520       -0.260353
16
reaction_000_gen_9_frame_0458
H           0.503780       -2.112503       -1.579789
C           0.498197       -2.090769       -0.606700
H           1.095954       -1.326077       -0.572238
C           0.859444        1.141225       -0.082830
H           0.241466       -0.251224        0.597190
H           2.040298        0.193498       -0.975739
H           0.386298       -0.241165        0.783450
C          -0.555081       -1.284537       -1.298342
H          -0.585149        1.800968        0.027357
C          -0.535031        1.793799        0.843134
H          -1.868830        0.182368        0.508628
C           0.040491       -0.335907        0.961329
H           0.716254        1.131056        1.424793
C          -0.671652        1.643112        0.234676
H          -0.681958        0.200480       -0.076550
H          -1.484482       -0.444325       -0.188368
16
reaction_000_gen_9_frame_0459
H           0.431633       -2.147602       -1.593798
C           0.560926       -2.172044       -0.575274
H           1.115457       -1.364152       -0.523293
C           0.850960        1.151345       -0.070724
H           0.313681       -0.283366        0.605265
H           2.030060        0.154663       -1.025026
H           0.332874       -0.272869        0.740951
C          -0.526686       -1.266587       -1.285563
H          -0.576629        1.761943        0.052160
C          -0.513864        1.858396        0.883976
H          -1.954346        0.245907        0.617613
C           0.061702       -0.289193        0.925726
H           0.696137        1.188824        1.275872
C          -0.656697        1.642806        0.242893
H          -0.702473        0.294378       -0.079964
H          -1.462735       -0.502447       -0.190813
16
reaction_000_gen_9_frame_0460
H           0.436407       -2.242940       -1.583174
C           0.554375       -2.122400       -0.522161
H           1.126656       -1.404896       -0.493778
C           0.886295        1.183844       -0.088853
H           0.204113       -0.353222        0.569248
H           2.115165        0.123596       -1.002679
H           0.388390       -0.242031        0.733714
C          -0.537898       -1.229013       -1.231016
H          -0.606960        1.713035        0.199054
C          -0.533042        1.834107        0.891128
H          -1.898920        0.263557        0.672253
C           0.021035       -0.236486        0.851327
H           0.641534        1.217600        1.245781
C          -0.576630        1.641276        0.119990
H          -0.787924        0.389187       -0.137612
H          -1.432597       -0.535212       -0.223221
16
reaction_000_gen_9_frame_0461
H           0.425948       -2.208493       -1.615882
C           0.494308       -2.137449       -0.552530
H           1.116568       -1.392244       -0.476074
C           0.896582        1.166724       -0.114133
H           0.271842       -0.411818        0.593992
H           2.165106        0.048702       -1.103257
H           0.296720       -0.265890        0.816087
C          -0.472371       -1.201449       -1.171339
H          -0.622675        1.748648        0.159969
C          -0.578926        1.732240        0.847192
H          -1.882176        0.240812        0.731604
C           0.021373       -0.245761        0.884614
H           0.689833        1.223270        1.224669
C          -0.516105        1.693041        0.077534
H          -0.909223        0.438098       -0.096829
H          -1.396803       -0.428432       -0.205616
16
reaction_000_gen_9_frame_0462
H           0.348942       -2.214350       -1.685954
C           0.456953       -2.043918       -0.571810
H           1.068316       -1.411950       -0.507573
C           0.848623        1.198872       -0.116949
H           0.253555       -0.394591        0.560150
H           2.216960        0.070090       -0.994689
H           0.347633       -0.290917        0.747926
C          -0.359432       -1.255638       -1.207152
H          -0.619409        1.704788        0.134281
C          -0.565316        1.703817        0.925002
H          -1.865409        0.215253        0.829522
C           0.034965       -0.248227        0.924989
H           0.653109        1.268745        1.207317
C          -0.565738        1.769400        0.051238
H          -0.848485        0.437241       -0.043515
H          -1.405266       -0.508615       -0.252784
16
reaction_000_gen_9_frame_0463
H           0.365393       -2.165412       -1.701404
C           0.365456       -2.061832       -0.640947
H           1.170432       -1.373420       -0.550279
C           0.852962        1.225934       -0.149551
H           0.280563       -0.253671        0.655195
H           2.170426        0.145645       -0.925434
H           0.347455       -0.279252        0.830842
C          -0.283516       -1.436816       -1.086483
H          -0.656841        1.662459        0.080865
C          -0.581519        1.766299        0.815217
H          -1.836992        0.105596        0.876488
C          -0.003867       -0.214497        0.913270
H           0.617113        1.274370        1.261134
C          -0.563878        1.697598       -0.016253
H          -0.811401        0.410058       -0.100171
H          -1.431786       -0.503059       -0.262489
16
reaction_000_gen_9_frame_0464
H           0.364959       -2.155240       -1.826912
C           0.261929       -2.014894       -0.638785
H           1.141265       -1.326275       -0.670231
C           0.889478        1.248735       -0.137740
H           0.405343       -0.203762        0.687546
H           2.182957        0.094680       -0.961325
H           0.369211       -0.307208        0.801908
C          -0.283315       -1.379243       -0.942903
H          -0.676497        1.664346        0.028023
C          -0.532230        1.765390        0.826915
H          -1.869478        0.068201        0.895301
C           0.084062       -0.279665        0.906463
H           0.633745        1.182520        1.320754
C          -0.609051        1.683938       -0.047048
H          -0.857292        0.499320       -0.048409
H          -1.505086       -0.540844       -0.193557
16
reaction_000_gen_9_frame_0465
H           0.312257       -2.213542       -1.887175
C           0.232259       -1.922917       -0.588784
H           1.201921       -1.289800       -0.675889
C           0.842411        1.243255       -0.011559
H           0.369423       -0.239511        0.669233
H           2.220590        0.043041       -0.918613
H           0.462882       -0.353602        0.809483
C          -0.309584       -1.293700       -0.958331
H          -0.754866        1.726823       -0.000044
C          -0.558680        1.719421        0.879676
H          -1.850437        0.175829        0.879122
C           0.132710       -0.262990        0.858758
H           0.652690        1.134126        1.342088
C          -0.528754        1.659763       -0.132782
H          -0.878519        0.510104       -0.177186
H          -1.546304       -0.636299       -0.087996
16
reaction_000_gen_9_frame_0466
H           0.310708       -2.240293       -1.852238
C           0.205969       -1.893792       -0.554407
H           1.226034       -1.262711       -0.728502
C           0.831002        1.252014       -0.030795
H           0.495091       -0.214396        0.613304
H           2.339408        0.059316       -0.868304
H           0.392637       -0.281950        0.832167
C          -0.400006       -1.192497       -0.949546
H          -0.747398        1.761142       -0.050395
C          -0.601372        1.659703        0.952680
H          -1.791832        0.133838        0.904659
C           0.154050       -0.372694        0.870492
H           0.587358        1.170908        1.363706
C          -0.528746        1.683902       -0.282870
H          -0.990318        0.462340       -0.150833
H          -1.482587       -0.724830       -0.069118
16
reaction_000_gen_9_frame_0467
H           0.326470       -2.187301       -1.851321
C           0.168372       -1.810421       -0.596052
H           1.188691       -1.266726       -0.716551
C           0.803449        1.222165       -0.044803
H           0.578630       -0.185572        0.624570
H           2.379403        0.061686       -0.821476
H           0.480964       -0.372932        0.837881
C          -0.487352       -1.242396       -0.932965
H          -0.783451        1.760923       -0.078732
C          -0.575858        1.746286        0.855138
H          -1.820212        0.154303        0.945397
C           0.097989       -0.402179        0.870490
H           0.556527        1.167999        1.282167
C          -0.539954        1.583944       -0.195313
H          -0.875305        0.523472       -0.183085
H          -1.498364       -0.753250        0.004653
16
reaction_000_gen_9_frame_0468
H           0.295467       -2.152514       -1.854136
C           0.146895       -1.780866       -0.546192
H           1.199434       -1.327357       -0.654760
C           0.742357        1.140038       -0.004148
H           0.619993       -0.259596        0.716477
H           2.406568        0.124655       -0.897510
H           0.517379       -0.395407        0.778732
C          -0.610666       -1.162591       -0.962851
H          -0.685226        1.740868       -0.081806
C          -0.546419        1.771510        0.852508
H          -1.807649        0.299321        0.948449
C           0.093727       -0.436455        0.891113
H           0.575385        1.147331        1.209755
C          -0.552993        1.585775       -0.253961
H          -0.854654        0.518658       -0.113181
H          -1.539599       -0.813369       -0.028488
16
reaction_000_gen_9_frame_0469
H           0.311712       -2.154467       -1.795266
C           0.148616       -1.784883       -0.530006
H           1.203377       -1.309834       -0.675169
C           0.695353        1.155487        0.050440
H           0.701416       -0.315974        0.638479
H           2.396998        0.104543       -0.893259
H           0.516741       -0.378839        0.815514
C          -0.642658       -1.149225       -0.972754
H          -0.661865        1.812879       -0.103658
C          -0.575307        1.793924        0.901397
H          -1.904201        0.239843        0.965766
C           0.059968       -0.467494        0.955427
H           0.502637        1.162965        1.197016
C          -0.573801        1.589634       -0.275302
H          -0.721439        0.478975       -0.179807
H          -1.457549       -0.777536       -0.098818
16
reaction_000_gen_9_frame_0470
H           0.302717       -2.149649       -1.736286
C           0.174564       -1.795965       -0.554676
H           1.220401       -1.340254       -0.509498
C           0.759910        1.096603        0.047727
H           0.658471       -0.245807        0.590183
H           2.316957        0.084741       -0.851050
H           0.509752       -0.322352        0.828428
C          -0.657389       -1.184312       -0.977047
H          -0.683958        1.822396       -0.109728
C          -0.439823        1.763570        0.799775
H          -1.934654        0.155558        0.960148
C           0.089748       -0.412546        0.989533
H           0.473765        1.176358        1.216015
C          -0.523642        1.711055       -0.288899
H          -0.705930        0.491609       -0.256411
H          -1.560889       -0.851004       -0.148215
16
reaction_000_gen_9_frame_0471
H           0.362486       -2.161029       -1.759961
C           0.169488       -1.790681       -0.610521
H           1.265197       -1.263658       -0.516464
C           0.643300        1.097193        0.113089
H           0.662587       -0.278941        0.543278
H           2.352999        0.045528       -0.779286
H           0.493985       -0.199508        0.883265
C          -0.638711       -1.124068       -0.982852
H          -0.699470        1.811564       -0.133399
C          -0.530590        1.762620        0.779315
H          -1.905657        0.103364        0.893190
C           0.143968       -0.458967        0.962591
H           0.428262        1.150195        1.145535
C          -0.470518        1.675798       -0.176269
H          -0.680839        0.527177       -0.297458
H          -1.596488       -0.896588       -0.064055
16
reaction_000_gen_9_frame_0472
H           0.371322       -2.243668       -1.666671
C           0.069359       -1.753894       -0.612679
H           1.213889       -1.186010       -0.472390
C           0.618512        1.044871        0.131492
H           0.691306       -0.221150        0.492410
H           2.328387        0.036475       -0.791769
H           0.571695       -0.260613        0.872960
C          -0.580171       -1.180030       -1.053582
H          -0.665106        1.781010       -0.112212
C          -0.473642        1.810333        0.914003
H          -1.908816        0.079983        0.772017
C           0.158911       -0.468449        0.901720
H           0.496100        1.252759        1.141463
C          -0.563424        1.581652       -0.126464
H          -0.645276        0.589681       -0.285183
H          -1.683048       -0.862950       -0.105113
16
reaction_000_gen_9_frame_0473
H           0.411078       -2.235810       -1.654335
C           0.056878       -1.832511       -0.611117
H           1.245095       -1.097821       -0.498853
C           0.655644        0.982622        0.063921
H           0.638448       -0.226504        0.524780
H           2.316954        0.077860       -0.752755
H           0.544136       -0.332162        0.917544
C          -0.560687       -1.249836       -1.043677
H          -0.617436        1.803353       -0.100701
C          -0.474686        1.850697        0.959847
H          -1.932544        0.085170        0.813469
C           0.139379       -0.458252        0.872933
H           0.509301        1.327527        1.054535
C          -0.557481        1.580323       -0.122005
H          -0.611700        0.579873       -0.331704
H          -1.762378       -0.854529       -0.091882
16
reaction_000_gen_9_frame_0474
H           0.360782       -2.207002       -1.750906
C           0.001616       -1.901579       -0.557427
H           1.284266       -1.140709       -0.508418
C           0.649202        0.949099        0.110049
H           0.689471       -0.232518        0.482517
H           2.299594        0.047042       -0.762478
H           0.621826       -0.345763        0.896554
C          -0.566454       -1.263916       -0.998289
H          -0.656570        1.837595       -0.134767
C          -0.429318        1.874582        0.896917
H          -1.891788        0.297987        0.912904
C           0.148698       -0.476138        0.930765
H           0.470956        1.254042        1.002657
C          -0.598733        1.551536       -0.132426
H          -0.662791        0.658823       -0.355560
H          -1.720755       -0.903080       -0.032091
16
reaction_000_gen_9_frame_0475
H           0.359557       -2.275486       -1.819717
C           0.016071       -1.843800       -0.612137
H           1.274426       -1.191233       -0.502465
C           0.633737        0.911061        0.057116
H           0.644683       -0.203948        0.425467
H           2.350419        0.096248       -0.804750
H           0.677914       -0.381398        0.913921
C          -0.533214       -1.194465       -0.874563
H          -0.593224        1.882209       -0.075601
C          -0.418165        1.790822        0.955069
H          -1.910013        0.222563        0.872745
C           0.148256       -0.365025        0.844799
H           0.368608        1.231555        0.964157
C          -0.597022        1.562240       -0.109002
H          -0.685454        0.626322       -0.269472
H          -1.736578       -0.867663        0.034434
16
reaction_000_gen_9_frame_0476
H           0.355479       -2.216390       -1.712496
C           0.083746       -1.848162       -0.586113
H           1.322964       -1.322821       -0.445245
C           0.632556        0.824541       -0.049266
H           0.602310       -0.249404        0.523331
H           2.370635        0.206607       -0.746792
H           0.703345       -0.463982        0.997230
C          -0.607541       -1.149554       -0.840024
H          -0.530646        1.979631       -0.095126
C          -0.400926        1.762022        0.877306
H          -1.895527        0.200647        0.845043
C           0.075537       -0.328722        0.814602
H           0.324371        1.221978        0.946830
C          -0.561075        1.627073       -0.152854
H          -0.678700        0.643708       -0.297383
H          -1.796530       -0.887173       -0.079042
16
reaction_000_gen_9_frame_0477
H           0.361509       -2.289905       -1.707260
C           0.105970       -1.831987       -0.618418
H           1.377294       -1.345461       -0.512517
C           0.562993        0.808675       -0.091684
H           0.616706       -0.257908        0.521606
H           2.319480        0.164719       -0.730640
H           0.645613       -0.462001        1.090903
C          -0.480933       -1.128457       -0.797324
H          -0.588188        1.998410       -0.108386
C          -0.312352        1.974152        0.793940
H          -1.907006        0.230055        0.821917
C           0.067108       -0.390550        0.909811
H           0.308156        1.176656        1.039209
C          -0.611958        1.672408       -0.087901
H          -0.662277        0.572402       -0.460075
H          -1.802115       -0.891206       -0.063181
16
reaction_000_gen_9_frame_0478
H           0.413732       -2.272309       -1.772069
C           0.147135       -1.770578       -0.618949
H           1.372424       -1.313271       -0.560343
C           0.519009        0.754606       -0.138585
H           0.604825       -0.302326        0.509921
H           2.389494        0.122217       -0.696558
H           0.576460       -0.467290        1.041896
C          -0.461043       -1.171250       -0.798043
H          -0.554447        1.975544       -0.068650
C          -0.323309        1.979635        0.845954
H          -1.923440        0.301768        0.775989
C           0.006290       -0.393754        0.957549
H           0.246879        1.121562        1.044437
C          -0.483097        1.646797       -0.098261
H          -0.717151        0.638349       -0.438124
H          -1.813759       -0.849699        0.013835
16
reaction_000_gen_9_frame_0479
H           0.382060       -2.328716       -1.824148
C           0.228735       -1.742388       -0.616454
H           1.343434       -1.351315       -0.469351
C           0.435289        0.798513       -0.147032
H           0.647352       -0.253891        0.515353
H           2.388296        0.239730       -0.665595
H           0.682803       -0.503780        1.044513
C          -0.503939       -1.185810       -0.803968
H          -0.639497        2.017380       -0.003150
C          -0.312809        1.916249        0.780285
H          -1.956510        0.291439        0.805908
C          -0.026982       -0.364950        0.812898
H           0.276936        1.066162        1.009424
C          -0.440104        1.574167       -0.006480
H          -0.663944        0.592969       -0.419299
H          -1.841120       -0.765758       -0.012904
16
reaction_000_gen_9_frame_0480
H           0.364201       -2.272752       -1.853145
C           0.219695       -1.755046       -0.637882
H           1.356585       -1.284410       -0.418266
C           0.447085        0.767303       -0.194923
H           0.681830       -0.236790        0.483330
H           2.413048        0.216263       -0.597376
H           0.659543       -0.547986        1.093173
C          -0.515568       -1.225417       -0.753314
H          -0.595076        2.012149       -0.016599
C          -0.416914        1.895025        0.779593
H          -1.957247        0.287430        0.774823
C           0.021358       -0.347629        0.781644
H           0.305839        0.972919        1.018213
C          -0.412499        1.656263       -0.054392
H          -0.658156        0.652257       -0.422399
H          -1.913722       -0.789579        0.017521
16
reaction_000_gen_9_frame_0481
H           0.284057       -2.319642       -1.779598
C           0.290022       -1.797282       -0.638923
H           1.428837       -1.278594       -0.432206
C           0.403557        0.722290       -0.233787
H           0.702317       -0.311916        0.458026
H           2.361382        0.284128       -0.662267
H           0.632660       -0.458981        1.069432
C          -0.367274       -1.195737       -0.791354
H          -0.580309        1.991540        0.038011
C          -0.419482        1.844899        0.805891
H          -2.051292        0.265765        0.762309
C          -0.044428       -0.349938        0.780711
H           0.310620        0.963742        1.110418
C          -0.359917        1.754560       -0.083809
H          -0.679901        0.707664       -0.381682
H          -1.910849       -0.822498       -0.021172
16
reaction_000_gen_9_frame_0482
H           0.202079       -2.297291       -1.792692
C           0.175448       -1.772335       -0.654246
H           1.433465       -1.218348       -0.461279
C           0.400111        0.782637       -0.234094
H           0.739639       -0.342858        0.454739
H           2.391577        0.337312       -0.649073
H           0.653060       -0.578505        1.101510
C          -0.323852       -1.189256       -0.746314
H          -0.626414        1.966324        0.020707
C          -0.355119        1.893111        0.777821
H          -2.033047        0.246986        0.838149
C          -0.055349       -0.396651        0.836456
H           0.314188        0.918221        1.255606
C          -0.242272        1.735847       -0.115367
H          -0.691185        0.682284       -0.457316
H          -1.982330       -0.767478       -0.174607
16
reaction_000_gen_9_frame_0483
H           0.152804       -2.340431       -1.720296
C           0.107236       -1.795158       -0.638588
H           1.392843       -1.280629       -0.494172
C           0.434657        0.812869       -0.289896
H           0.770446       -0.337235        0.492038
H           2.370004        0.380159       -0.734861
H           0.710128       -0.572912        1.128215
C          -0.314070       -1.180719       -0.682953
H          -0.607284        2.001293       -0.053458
C          -0.376231        1.844649        0.671476
H          -1.953431        0.338328        0.866889
C           0.003589       -0.423648        0.735532
H           0.291541        0.965729        1.332495
C          -0.203060        1.766317       -0.051898
H          -0.713984        0.636632       -0.390802
H          -2.065188       -0.815245       -0.169723
16
reaction_000_gen_9_frame_0484
H           0.207541       -2.330531       -1.685230
C           0.083441       -1.774101       -0.659339
H           1.343491       -1.221406       -0.582150
C           0.435633        0.857699       -0.259714
H           0.804666       -0.426906        0.436379
H           2.430091        0.441664       -0.727145
H           0.781790       -0.593321        1.160415
C          -0.358232       -1.084120       -0.605595
H          -0.681132        1.929397       -0.056298
C          -0.376544        1.710925        0.721479
H          -1.996485        0.347284        0.848082
C           0.037481       -0.421951        0.817087
H           0.277306        1.083338        1.382728
C          -0.173099        1.729173       -0.047916
H          -0.717510        0.594546       -0.542123
H          -2.098436       -0.841689       -0.200660
16
reaction_000_gen_9_frame_0485
H           0.245109       -2.251259       -1.628947
C          -0.011728       -1.780627       -0.687616
H           1.271035       -1.302018       -0.532598
C           0.522083        0.845171       -0.235673
H           0.822443       -0.448472        0.394813
H           2.480953        0.490968       -0.694616
H           0.831843       -0.573024        1.191644
C          -0.359198       -1.014947       -0.618880
H          -0.629578        1.873425       -0.151061
C          -0.401868        1.645711        0.743730
H          -1.954084        0.336402        0.899768
C          -0.071376       -0.431338        0.855498
H           0.179109        1.106643        1.373345
C          -0.052487        1.830362       -0.046836
H          -0.769093        0.528140       -0.571383
H          -2.103163       -0.855138       -0.291186
16
reaction_000_gen_9_frame_0486
H           0.356374       -2.177432       -1.637293
C           0.017641       -1.735928       -0.669066
H           1.294471       -1.258957       -0.600088
C           0.438094        0.811526       -0.236620
H           0.761021       -0.403047        0.333281
H           2.522003        0.431577       -0.695239
H           0.768618       -0.599558        1.188401
C          -0.364650       -0.981022       -0.610542
H          -0.685328        1.873662       -0.111315
C          -0.349666        1.690248        0.741069
H          -2.040493        0.319570        0.896004
C          -0.049831       -0.481713        0.892117
H           0.218662        1.185380        1.481757
C          -0.013642        1.758563       -0.047108
H          -0.786309        0.476162       -0.658636
H          -2.086967       -0.909030       -0.266721
16
reaction_000_gen_9_frame_0487
H           0.343139       -2.134707       -1.638645
C           0.041917       -1.738993       -0.527485
H           1.318201       -1.278515       -0.599433
C           0.364457        0.764971       -0.274200
H           0.760756       -0.413100        0.335790
H           2.562614        0.424879       -0.706605
H           0.681996       -0.546484        1.258773
C          -0.371293       -1.050858       -0.724071
H          -0.683148        1.887155       -0.051833
C          -0.368118        1.707534        0.817129
H          -2.055135        0.348697        0.844056
C          -0.141529       -0.464432        0.899874
H           0.203147        1.164671        1.501170
C          -0.013096        1.767287       -0.073027
H          -0.679602        0.393496       -0.706204
H          -1.964306       -0.831600       -0.355290
16
reaction_000_gen_9_frame_0488
H           0.354648       -2.124334       -1.683087
C           0.060867       -1.665495       -0.511869
H           1.318171       -1.334123       -0.492855
C           0.393753        0.659405       -0.296378
H           0.794158       -0.343113        0.387933
H           2.547331        0.433882       -0.694106
H           0.683515       -0.559311        1.253902
C          -0.387289       -0.983103       -0.692067
H          -0.647413        1.845961       -0.095993
C          -0.395668        1.742560        0.723899
H          -1.971183        0.376906        0.851158
C          -0.256935       -0.448164        0.920716
H           0.081718        1.161043        1.429785
C           0.103099        1.772595       -0.081340
H          -0.720769        0.353173       -0.655043
H          -1.958001       -0.887882       -0.364654
16
reaction_000_gen_9_frame_0489
H           0.359127       -2.016653       -1.749679
C           0.055968       -1.671104       -0.454516
H           1.293029       -1.306770       -0.442840
C           0.451562        0.554603       -0.218173
H           0.871719       -0.342087        0.448665
H           2.564194        0.412035       -0.715265
H           0.744300       -0.583234        1.219197
C          -0.315430       -1.053081       -0.783795
H          -0.647827        1.875138       -0.152904
C          -0.464782        1.777491        0.760336
H          -2.007649        0.329214        0.941339
C          -0.198803       -0.341839        0.910409
H           0.028969        1.133629        1.367599
C           0.038157        1.751839       -0.051117
H          -0.734977        0.339825       -0.695579
H          -2.037556       -0.859007       -0.383676
16
reaction_000_gen_9_frame_0490
H           0.397925       -1.982140       -1.835052
C           0.060508       -1.668612       -0.414519
H           1.248842       -1.275060       -0.441653
C           0.457672        0.475773       -0.334048
H           0.856007       -0.454785        0.422625
H           2.531102        0.456552       -0.714233
H           0.727301       -0.542349        1.196755
C          -0.361971       -1.043915       -0.842287
H          -0.602856        1.899817       -0.082288
C          -0.536282        1.759677        0.864656
H          -2.059945        0.284082        0.956190
C          -0.228127       -0.376768        0.880274
H           0.074051        1.242968        1.427752
C           0.087684        1.778633       -0.102347
H          -0.609092        0.326842       -0.616484
H          -2.042819       -0.880715       -0.365341
16
reaction_000_gen_9_frame_0491
H           0.339422       -1.988955       -1.758593
C           0.073091       -1.641446       -0.425140
H           1.184315       -1.268533       -0.470141
C           0.442600        0.486734       -0.360390
H           0.877348       -0.435677        0.458317
H           2.541892        0.485237       -0.756814
H           0.738827       -0.546379        1.162924
C          -0.345412       -1.106969       -0.802388
H          -0.534103        1.854411       -0.082480
C          -0.429492        1.731199        0.834922
H          -1.920546        0.282607        0.950995
C          -0.338883       -0.362881        0.835496
H          -0.015981        1.329600        1.465784
C           0.018228        1.751091       -0.093848
H          -0.587096        0.324590       -0.552390
H          -2.044210       -0.894630       -0.406254
16
reaction_000_gen_9_frame_0492
H           0.309306       -1.985954       -1.700093
C           0.030843       -1.665732       -0.324260
H           1.259622       -1.214632       -0.521269
C           0.438247        0.463002       -0.411410
H           0.867861       -0.392227        0.518841
H           2.458816        0.452727       -0.738364
H           0.691656       -0.607999        1.102923
C          -0.338463       -1.093034       -0.775977
H          -0.497252        1.837804       -0.097489
C          -0.484063        1.684110        0.861187
H          -1.914548        0.351515        0.857168
C          -0.360646       -0.342634        0.877533
H           0.000024        1.315520        1.422928
C          -0.073566        1.710332       -0.098007
H          -0.399272        0.308195       -0.600480
H          -1.988567       -0.820994       -0.373230
16
reaction_000_gen_9_frame_0493
H           0.214025       -1.964719       -1.660536
C           0.132649       -1.632236       -0.386662
H           1.287579       -1.234078       -0.451901
C           0.386793        0.416127       -0.445353
H           0.911207       -0.352937        0.519186
H           2.487823        0.424039       -0.780671
H           0.762848       -0.605606        1.047054
C          -0.301588       -1.109846       -0.756303
H          -0.464291        1.788447       -0.090886
C          -0.565069        1.655007        0.822660
H          -1.952748        0.367579        0.882581
C          -0.464692       -0.344680        0.958233
H           0.051664        1.377936        1.441996
C          -0.096360        1.685912       -0.060591
H          -0.423324        0.295953       -0.606708
H          -1.966518       -0.766899       -0.432101
16
reaction_000_gen_9_frame_0494
H           0.158980       -1.926763       -1.683537
C           0.165353       -1.727174       -0.380076
H           1.264527       -1.188070       -0.460772
C           0.428407        0.356996       -0.417367
H           0.883788       -0.338879        0.399223
H           2.492701        0.409677       -0.760161
H           0.764082       -0.634545        1.144983
C          -0.315434       -1.165202       -0.790696
H          -0.443493        1.776700       -0.148418
C          -0.447820        1.637333        0.834913
H          -1.984975        0.481474        0.947209
C          -0.521791       -0.290203        0.931072
H           0.086816        1.348665        1.498489
C          -0.115827        1.687833       -0.095698
H          -0.395401        0.338006       -0.670939
H          -2.019912       -0.765849       -0.348225
16
reaction_000_gen_9_frame_0495
H           0.146066       -1.854168       -1.724678
C           0.165688       -1.694168       -0.409111
H           1.312236       -1.141953       -0.498520
C           0.488995        0.288589       -0.299543
H           0.870499       -0.326225        0.406101
H           2.565901        0.414743       -0.721695
H           0.777550       -0.650487        1.188505
C          -0.303723       -1.076198       -0.745268
H          -0.428134        1.844350       -0.120830
C          -0.445902        1.531499        0.812828
H          -2.039548        0.409073        0.987929
C          -0.513416       -0.270433        0.844625
H           0.174458        1.271765        1.549261
C          -0.182153        1.658134       -0.171742
H          -0.392569        0.348807       -0.738416
H          -2.195946       -0.753329       -0.359447
16
reaction_000_gen_9_frame_0496
H           0.074903       -1.847266       -1.839351
C           0.026194       -1.674234       -0.386934
H           1.273968       -1.122362       -0.515654
C           0.531708        0.268259       -0.353131
H           0.898650       -0.355816        0.352831
H           2.560431        0.487835       -0.836941
H           0.780374       -0.739594        1.243699
C          -0.358231       -1.001532       -0.710744
H          -0.376109        1.761869       -0.077446
C          -0.471114        1.525495        0.821009
H          -2.044374        0.571620        1.026068
C          -0.372572       -0.278098        0.905510
H           0.281982        1.278624        1.601822
C          -0.236907        1.603419       -0.119740
H          -0.425052        0.286813       -0.712127
H          -2.143853       -0.765031       -0.398871
16
reaction_000_gen_9_frame_0497
H           0.108550       -1.883785       -1.863560
C           0.059417       -1.797940       -0.348380
H           1.345610       -1.057364       -0.525064
C           0.525863        0.264643       -0.336990
H           0.846156       -0.445191        0.362169
H           2.596396        0.478962       -0.757412
H           0.780941       -0.719588        1.246757
C          -0.393773       -0.996311       -0.780702
H          -0.390915        1.800862       -0.033548
C          -0.485725        1.562792        0.799108
H          -2.081006        0.535047        0.925515
C          -0.357039       -0.265313        0.871714
H           0.212504        1.294713        1.620221
C          -0.240729        1.619489       -0.113230
H          -0.373137        0.323047       -0.674200
H          -2.153110       -0.714063       -0.392399
16
reaction_000_gen_9_frame_0498
H           0.023499       -1.890261       -1.903334
C           0.108869       -1.758132       -0.296746
H           1.248273       -1.085071       -0.540134
C           0.588796        0.295206       -0.312910
H           0.860304       -0.376747        0.442529
H           2.592652        0.516360       -0.754347
H           0.709531       -0.758327        1.294265
C          -0.339922       -0.970601       -0.872871
H          -0.368956        1.878572       -0.120545
C          -0.441897        1.545895        0.879042
H          -1.948536        0.491703        0.948867
C          -0.413740       -0.268656        0.867391
H           0.228814        1.314182        1.631067
C          -0.267701        1.634005       -0.146274
H          -0.390390        0.199982       -0.717108
H          -2.189596       -0.768110       -0.398892
16
reaction_000_gen_9_frame_0499
H          -0.006550       -1.903239       -1.862329
C           0.143564       -1.768661       -0.286957
H           1.276857       -1.156375       -0.547771
C           0.532220        0.373730       -0.278762
H           0.890834       -0.374173        0.434393
H           2.582774        0.469765       -0.672135
H           0.781113       -0.748971        1.284109
C          -0.350634       -0.952978       -0.934668
H          -0.376124        1.837467       -0.122674
C          -0.421681        1.590444        0.786916
H          -2.007582        0.508285        0.911975
C          -0.304585       -0.298216        0.983489
H           0.219126        1.346093        1.654372
C          -0.298576        1.616576       -0.179277
H          -0.397967        0.182670       -0.770487
H          -2.262789       -0.722415       -0.400195
16
reaction_000_gen_9_frame_0500
H           0.016976       -1.922258       -1.915090
C           0.178475       -1.811202       -0.280531
H           1.229437       -1.099417       -0.607898
C           0.489895        0.276117       -0.259055
H           0.841268       -0.392118        0.499417
H           2.551495        0.466652       -0.677030
H           0.774005       -0.758552        1.277260
C          -0.355187       -0.956827       -0.936528
H          -0.339094        1.921011       -0.091900
C          -0.409406        1.596808        0.856161
H          -1.989840        0.423085        0.920170
C          -0.461114       -0.354331        0.993925
H           0.287094        1.398530        1.619174
C          -0.249102        1.675925       -0.168217
H          -0.388053        0.220467       -0.799595
H          -2.176850       -0.683891       -0.430263
16
reaction_000_gen_9_frame_0501
H          -0.029303       -1.935348       -1.996475
C           0.160799       -1.852873       -0.306055
H           1.180034       -1.078995       -0.575266
C           0.425036        0.298231       -0.244645
H           0.813519       -0.375148        0.608734
H           2.545856        0.388252       -0.659967
H           0.835066       -0.801778        1.295551
C          -0.351824       -0.866844       -0.861744
H          -0.347619        1.933596       -0.137803
C          -0.424516        1.571656        0.930445
H          -1.949951        0.425398        0.895142
C          -0.437645       -0.391413        0.974470
H           0.359378        1.386561        1.574300
C          -0.194605        1.745419       -0.163538
H          -0.429085        0.228006       -0.831829
H          -2.155139       -0.674722       -0.501321
16
reaction_000_gen_9_frame_0502
H           0.056092       -1.909341       -1.981075
C           0.183666       -1.824225       -0.212178
H           1.234244       -1.119547       -0.548320
C           0.431601        0.287956       -0.246755
H           0.728999       -0.267418        0.491869
H           2.534960        0.378211       -0.667653
H           0.717787       -0.871909        1.333261
C          -0.379188       -0.861132       -0.915473
H          -0.265706        1.909504       -0.082720
C          -0.449972        1.576670        0.926592
H          -2.005352        0.439297        0.873616
C          -0.503415       -0.374547        0.900449
H           0.472046        1.335629        1.631150
C          -0.203389        1.720024       -0.147769
H          -0.357598        0.227460       -0.803821
H          -2.194772       -0.646635       -0.551172
16
reaction_000_gen_9_frame_0503
H           0.105319       -1.985694       -1.981348
C           0.167830       -1.791557       -0.176287
H           1.279573       -1.111785       -0.550801
C           0.420617        0.282680       -0.222560
H           0.698295       -0.290579        0.494129
H           2.509065        0.445825       -0.741518
H           0.752999       -0.850185        1.328916
C          -0.483840       -0.844167       -0.857062
H          -0.263039        1.941245       -0.146711
C          -0.442862        1.620522        0.916308
H          -1.959879        0.411631        0.804997
C          -0.491390       -0.348187        0.993331
H           0.480834        1.296444        1.583344
C          -0.168385        1.723007       -0.130054
H          -0.330661        0.178540       -0.769191
H          -2.274476       -0.677740       -0.545492
16
reaction_000_gen_9_frame_0504
H           0.100291       -2.001889       -1.985249
C           0.059566       -1.762352       -0.188569
H           1.287484       -1.087066       -0.588602
C           0.432481        0.295226       -0.176825
H           0.784046       -0.336781        0.431968
H           2.513592        0.414359       -0.779863
H           0.791400       -0.829891        1.393282
C          -0.416783       -0.854190       -0.845303
H          -0.225103        1.966975       -0.152830
C          -0.482803        1.685046        0.933344
H          -1.987488        0.385402        0.812898
C          -0.623197       -0.349828        1.053646
H           0.503558        1.311860        1.510826
C          -0.158743        1.677310       -0.173751
H          -0.286900        0.214489       -0.729814
H          -2.291400       -0.728671       -0.515158
16
reaction_000_gen_9_frame_0505
H           0.117388       -1.914504       -1.906062
C           0.123407       -1.791305       -0.203344
H           1.309902       -1.129214       -0.549453
C           0.419850        0.315317       -0.179017
H           0.851299       -0.439159        0.394892
H           2.433462        0.418582       -0.800203
H           0.806078       -0.797301        1.379288
C          -0.432704       -0.771896       -0.925476
H          -0.155169        1.991668       -0.131157
C          -0.446076        1.600123        0.938350
H          -2.051641        0.397759        0.805495
C          -0.589332       -0.412382        1.057468
H           0.388720        1.273107        1.504984
C          -0.190832        1.709632       -0.201907
H          -0.316404        0.265644       -0.720403
H          -2.267949       -0.716069       -0.463457
16
reaction_000_gen_9_frame_0506
H           0.184290       -2.001521       -1.984055
C           0.163572       -1.825295       -0.233603
H           1.363196       -1.130301       -0.547851
C           0.360639        0.285574       -0.180981
H           0.845253       -0.495292        0.369654
H           2.425780        0.511325       -0.787020
H           0.855004       -0.842588        1.333833
C          -0.459220       -0.748903       -0.984920
H          -0.159667        2.019269       -0.077879
C          -0.438016        1.621039        0.977120
H          -2.043967        0.394529        0.860087
C          -0.646270       -0.345927        1.124220
H           0.354368        1.276918        1.440087
C          -0.276412        1.772580       -0.203561
H          -0.270443        0.258588       -0.747427
H          -2.258107       -0.749994       -0.357704
16
reaction_000_gen_9_frame_0507
H           0.233328       -1.931127       -2.009784
C           0.160102       -1.790701       -0.164689
H           1.345880       -1.001172       -0.542332
C           0.400986        0.202607       -0.235858
H           0.873593       -0.556168        0.395144
H           2.394634        0.425840       -0.735236
H           0.828849       -0.869949        1.330564
C          -0.478912       -0.738844       -0.968143
H          -0.146842        2.042712       -0.131960
C          -0.454955        1.676373        0.966493
H          -2.010484        0.303721        0.887758
C          -0.609298       -0.263944        1.147208
H           0.319501        1.274650        1.460725
C          -0.323798        1.772779       -0.164454
H          -0.302593        0.243819       -0.806883
H          -2.229992       -0.790598       -0.428551
16
reaction_000_gen_9_frame_0508
H           0.344129       -2.039232       -1.975297
C           0.104167       -1.799998       -0.196560
H           1.307406       -0.900275       -0.520606
C           0.393957        0.201719       -0.172640
H           0.844949       -0.587492        0.424190
H           2.338608        0.585016       -0.725912
H           0.813883       -0.900578        1.276325
C          -0.382930       -0.764167       -1.020705
H          -0.204712        2.084659       -0.166039
C          -0.463891        1.707422        0.923559
H          -1.996036        0.343597        0.846727
C          -0.586499       -0.334388        1.129425
H           0.370412        1.264871        1.541761
C          -0.273301        1.731896       -0.086080
H          -0.386982        0.241289       -0.785832
H          -2.223162       -0.834340       -0.492316
16
reaction_000_gen_9_frame_0509
H           0.410556       -2.091362       -1.906102
C           0.022578       -1.757033       -0.185843
H           1.346562       -0.934429       -0.505712
C           0.456002        0.166501       -0.205426
H           0.807464       -0.644703        0.505336
H           2.355967        0.627317       -0.759004
H           0.823707       -0.852021        1.232999
C          -0.393665       -0.814298       -0.972430
H          -0.225467        2.123427       -0.203340
C          -0.422956        1.712098        0.985157
H          -1.960177        0.339923        0.812811
C          -0.637721       -0.289505        1.108916
H           0.377860        1.291757        1.456759
C          -0.287700        1.678565       -0.078328
H          -0.410466        0.208838       -0.774102
H          -2.262543       -0.765077       -0.511692
16
reaction_000_gen_9_frame_0510
H           0.429916       -2.017350       -1.901455
C           0.017073       -1.694962       -0.201550
H           1.332452       -0.938136       -0.570519
C           0.507875        0.126299       -0.101464
H           0.859161       -0.602852        0.391591
H           2.406706        0.613399       -0.716698
H           0.816905       -0.852825        1.204268
C          -0.404548       -0.890312       -0.902510
H          -0.240275        2.096314       -0.262069
C          -0.500764        1.685275        1.022563
H          -1.904174        0.321178        0.901345
C          -0.612188       -0.332520        1.196003
H           0.302484        1.323422        1.472301
C          -0.291618        1.632957       -0.154058
H          -0.385000        0.232632       -0.793629
H          -2.334004       -0.702518       -0.584119
16
reaction_000_gen_9_frame_0511
H           0.463863       -2.035231       -1.985008
C           0.052048       -1.708211       -0.257086
H           1.372927       -0.972832       -0.559381
C           0.573090        0.099101       -0.129791
H           0.830374       -0.557528        0.331890
H           2.490475        0.633842       -0.670912
H           0.805633       -0.829548        1.270933
C          -0.513030       -0.851011       -0.899501
H          -0.225822        2.039051       -0.298127
C          -0.484958        1.650496        1.001496
H          -1.995049        0.303685        0.936808
C          -0.634693       -0.351781        1.233311
H           0.208005        1.343675        1.433775
C          -0.243306        1.633015       -0.100816
H          -0.387076        0.276682       -0.737602
H          -2.312482       -0.673403       -0.569989
16
reaction_000_gen_9_frame_0512
H           0.518789       -2.041198       -2.089966
C           0.109427       -1.741948       -0.136626
H           1.392107       -1.078632       -0.620443
C           0.544257        0.144621       -0.057123
H           0.899491       -0.562336        0.352943
H           2.437430        0.678067       -0.693943
H           0.654103       -0.874490        1.244029
C          -0.555602       -0.883056       -0.907790
H          -0.265404        2.014456       -0.319010
C          -0.518968        1.696913        0.995912
H          -1.887389        0.249720        0.920158
C          -0.646533       -0.275879        1.289414
H           0.275196        1.375578        1.495091
C          -0.179846        1.670589       -0.137200
H          -0.396596        0.260920       -0.794873
H          -2.380461       -0.633326       -0.540574
16
reaction_000_gen_9_frame_0513
H           0.536428       -1.953405       -2.002760
C           0.057952       -1.793283       -0.084921
H           1.393165       -1.101192       -0.593809
C           0.502455        0.170215       -0.088004
H           0.894535       -0.495511        0.367776
H           2.390251        0.714283       -0.718322
H           0.623321       -0.877263        1.196224
C          -0.456080       -0.950355       -1.000084
H          -0.309039        2.078317       -0.311719
C          -0.483497        1.717857        0.976340
H          -1.839910        0.211789        0.881230
C          -0.656564       -0.391751        1.307628
H           0.207352        1.341698        1.617411
C          -0.095088        1.611246       -0.165126
H          -0.402738        0.366636       -0.860570
H          -2.362542       -0.649280       -0.521295
16
reaction_000_gen_9_frame_0514
H           0.518530       -1.962840       -1.949636
C           0.095084       -1.744050       -0.078470
H           1.435941       -1.160887       -0.656018
C           0.464226        0.182517       -0.113477
H           0.769171       -0.493712        0.324196
H           2.429267        0.708116       -0.703650
H           0.633625       -0.841205        1.186212
C          -0.437104       -0.946681       -0.994312
H          -0.241288        2.155890       -0.317814
C          -0.425202        1.682317        0.921618
H          -1.856458        0.218758        0.981348
C          -0.702300       -0.375091        1.312538
H           0.206510        1.345007        1.610539
C          -0.101531        1.565490       -0.146705
H          -0.414929        0.348174       -0.864349
H          -2.373543       -0.681801       -0.512019
16
reaction_000_gen_9_frame_0515
H           0.502388       -1.929080       -2.019862
C           0.155551       -1.814941       -0.103981
H           1.411027       -1.149003       -0.644913
C           0.442206        0.190692       -0.062875
H           0.813614       -0.529162        0.316144
H           2.314221        0.735092       -0.657741
H           0.671642       -0.854857        1.208864
C          -0.447997       -0.998524       -0.982651
H          -0.290161        2.125124       -0.368803
C          -0.459854        1.773113        0.987723
H          -1.811758        0.217883        0.943977
C          -0.683423       -0.371115        1.275025
H           0.212171        1.382652        1.624767
C          -0.100313        1.557431       -0.171990
H          -0.426703        0.345927       -0.864534
H          -2.302613       -0.681233       -0.479150
16
reaction_000_gen_9_frame_0516
H           0.507466       -1.931854       -2.045926
C           0.163683       -1.872931       -0.140887
H           1.385526       -1.106941       -0.590530
C           0.522979        0.190932       -0.093596
H           0.926500       -0.547699        0.287357
H           2.294704        0.745679       -0.642029
H           0.690834       -0.820039        1.177424
C          -0.473107       -0.958394       -1.021157
H          -0.352952        2.133872       -0.317459
C          -0.466049        1.744213        0.994197
H          -1.820587        0.157551        0.937942
C          -0.657936       -0.410094        1.308882
H           0.222222        1.405452        1.658086
C          -0.131773        1.551977       -0.206242
H          -0.451609        0.307389       -0.841260
H          -2.359901       -0.589114       -0.464804
16
reaction_000_gen_9_frame_0517
H           0.542744       -1.945029       -2.023249
C           0.174093       -1.857868       -0.131803
H           1.323580       -1.074860       -0.686137
C           0.570825        0.256786       -0.109724
H           0.875699       -0.589714        0.288214
H           2.177067        0.749115       -0.688161
H           0.778879       -0.799294        1.294323
C          -0.483103       -1.022785       -1.063844
H          -0.414657        2.077988       -0.301851
C          -0.465960        1.736988        1.060509
H          -1.763407        0.176806        0.945717
C          -0.642468       -0.389536        1.328290
H           0.187260        1.463678        1.609987
C          -0.129882        1.617501       -0.161704
H          -0.459977        0.252965       -0.833348
H          -2.270694       -0.652740       -0.527220
16
reaction_000_gen_9_frame_0518
H           0.614614       -2.026790       -2.000117
C           0.232060       -1.900129       -0.090854
H           1.322814       -1.082092       -0.746744
C           0.608871        0.247913       -0.048675
H           0.848177       -0.606176        0.302912
H           2.155929        0.756799       -0.739640
H           0.760913       -0.803559        1.328128
C          -0.340854       -1.007226       -1.078603
H          -0.460394        2.027603       -0.381375
C          -0.577688        1.691763        1.054211
H          -1.766406        0.174129        0.999661
C          -0.584941       -0.378392        1.339919
H           0.150371        1.447214        1.555024
C          -0.178932        1.721099       -0.144653
H          -0.524304        0.354787       -0.871662
H          -2.260230       -0.616941       -0.477533
16
reaction_000_gen_9_frame_0519
H           0.629405       -1.944741       -1.995620
C           0.274673       -1.844660       -0.088136
H           1.311863       -1.039200       -0.738599
C           0.519778        0.201727       -0.035743
H           0.861381       -0.596624        0.274044
H           2.123165        0.727753       -0.660496
H           0.723459       -0.821430        1.386894
C          -0.314234       -1.168382       -1.048259
H          -0.488955        2.031264       -0.457851
C          -0.566369        1.713078        1.103270
H          -1.681382        0.146106        1.020679
C          -0.593525       -0.433777        1.321782
H           0.174999        1.516066        1.496415
C          -0.146235        1.722985       -0.162526
H          -0.551804        0.391162       -0.906170
H          -2.276217       -0.601327       -0.509684
16
reaction_000_gen_9_frame_0520
H           0.651321       -1.968059       -2.008494
C           0.256374       -1.855255       -0.111735
H           1.293879       -0.984687       -0.664940
C           0.564516        0.219338       -0.016799
H           0.882172       -0.662284        0.223649
H           2.149592        0.824499       -0.768545
H           0.704935       -0.825347        1.402727
C          -0.232605       -1.146890       -1.165533
H          -0.508493        2.043561       -0.481892
C          -0.534547        1.639714        1.189601
H          -1.665050        0.178049        1.016774
C          -0.614504       -0.409789        1.365038
H           0.171551        1.528639        1.508925
C          -0.221225        1.749884       -0.129478
H          -0.591216        0.295428       -0.889713
H          -2.306698       -0.626798       -0.469585
16
reaction_000_gen_9_frame_0521
H           0.605186       -1.997037       -2.060888
C           0.324682       -1.773533       -0.189568
H           1.242516       -0.972618       -0.691313
C           0.662450        0.228939        0.141371
H           0.909122       -0.701081        0.222225
H           2.179821        0.834957       -0.825368
H           0.684028       -0.785596        1.406948
C          -0.288960       -1.124645       -1.060344
H          -0.512695        1.996088       -0.503115
C          -0.596109        1.711532        1.203367
H          -1.565778        0.191665        0.987385
C          -0.588121       -0.380746        1.337549
H           0.138480        1.583278        1.517413
C          -0.214760        1.659925       -0.104327
H          -0.655804        0.263622       -0.881187
H          -2.324059       -0.734750       -0.500148
16
reaction_000_gen_9_frame_0522
H           0.652569       -1.958823       -2.171121
C           0.307860       -1.746942       -0.207968
H           1.166721       -1.040674       -0.713562
C           0.655631        0.237610        0.125021
H           0.895798       -0.620040        0.264531
H           2.170105        0.880474       -0.865334
H           0.814305       -0.775932        1.464826
C          -0.229813       -1.162242       -1.106566
H          -0.456431        1.974959       -0.442260
C          -0.613732        1.686963        1.231630
H          -1.588565        0.181614        1.037024
C          -0.531430       -0.412691        1.273928
H           0.102892        1.520908        1.487880
C          -0.245351        1.646775       -0.066636
H          -0.756954        0.240225       -0.830740
H          -2.343604       -0.652183       -0.480651
16
reaction_000_gen_9_frame_0523
H           0.597935       -1.950434       -2.161943
C           0.375728       -1.807050       -0.276874
H           1.186131       -0.997152       -0.827468
C           0.652392        0.244132        0.141104
H           0.900502       -0.560117        0.300071
H           2.235906        0.818921       -0.844500
H           0.762066       -0.776647        1.393522
C          -0.270698       -1.134104       -1.199600
H          -0.389825        1.998422       -0.406201
C          -0.655901        1.640766        1.291710
H          -1.543987        0.265136        1.091128
C          -0.569129       -0.457850        1.270767
H           0.183138        1.507521        1.624820
C          -0.315759        1.651848       -0.072513
H          -0.755131        0.250277       -0.849438
H          -2.393368       -0.693668       -0.474586
16
reaction_000_gen_9_frame_0524
H           0.641006       -1.973531       -2.105444
C           0.340130       -1.812597       -0.282863
H           1.167901       -1.074721       -0.740782
C           0.742221        0.274164        0.165166
H           0.927875       -0.518639        0.267787
H           2.220160        0.902851       -0.793566
H           0.749118       -0.780680        1.311423
C          -0.376250       -1.132962       -1.227228
H          -0.393226        1.917433       -0.450649
C          -0.696354        1.631971        1.281699
H          -1.576699        0.353356        1.132315
C          -0.513586       -0.549677        1.279063
H           0.148373        1.530156        1.550860
C          -0.256495        1.617418       -0.029717
H          -0.768470        0.294363       -0.846588
H          -2.355704       -0.678904       -0.511476
16
reaction_000_gen_9_frame_0525
H           0.658682       -1.958466       -2.143940
C           0.371785       -1.798971       -0.313427
H           1.163921       -1.121243       -0.641245
C           0.785370        0.371107        0.170342
H           0.846290       -0.611928        0.339649
H           2.255985        0.890869       -0.813322
H           0.775064       -0.762263        1.295920
C          -0.333182       -1.069300       -1.246334
H          -0.448108        1.827389       -0.421374
C          -0.648449        1.759833        1.315224
H          -1.591696        0.379113        1.075524
C          -0.568772       -0.554356        1.273821
H           0.187375        1.485828        1.524946
C          -0.415634        1.561054       -0.010196
H          -0.726812        0.250595       -0.901202
H          -2.311818       -0.649261       -0.504385
16
reaction_000_gen_9_frame_0526
H           0.673219       -1.962074       -2.056112
C           0.346600       -1.746955       -0.403783
H           1.166674       -1.068670       -0.664713
C           0.728358        0.392605        0.153234
H           0.851704       -0.568565        0.336936
H           2.272306        0.893892       -0.786154
H           0.737958       -0.649891        1.347751
C          -0.371007       -1.031349       -1.204789
H          -0.463776        1.845277       -0.503940
C          -0.607903        1.731846        1.269115
H          -1.559377        0.287773        1.099524
C          -0.635658       -0.633536        1.277717
H           0.248612        1.461838        1.545208
C          -0.385273        1.494756        0.037338
H          -0.713636        0.134070       -0.959173
H          -2.288801       -0.581016       -0.488158
16
reaction_000_gen_9_frame_0527
H           0.680437       -1.955328       -1.964896
C           0.417108       -1.687092       -0.386304
H           1.170205       -1.014385       -0.670905
C           0.710939        0.387631        0.098927
H           0.833779       -0.577848        0.278947
H           2.341707        0.851359       -0.751054
H           0.730273       -0.636589        1.382445
C          -0.369834       -0.958053       -1.149552
H          -0.442650        1.787414       -0.506430
C          -0.622549        1.775348        1.251974
H          -1.577167        0.282059        1.088987
C          -0.686277       -0.613991        1.310296
H           0.186215        1.411937        1.502221
C          -0.380146        1.459320       -0.003530
H          -0.755654        0.136605       -0.962738
H          -2.236387       -0.648386       -0.518387
16
reaction_000_gen_9_frame_0528
H           0.591197       -1.960737       -1.914472
C           0.383096       -1.736822       -0.418061
H           1.116405       -0.976475       -0.695630
C           0.748530        0.286769        0.118191
H           0.917940       -0.545942        0.280854
H           2.271278        0.822263       -0.702431
H           0.729843       -0.666263        1.419695
C          -0.343224       -0.968928       -1.151018
H          -0.480059        1.801067       -0.567896
C          -0.587670        1.798453        1.225199
H          -1.521475        0.260200        1.015657
C          -0.617022       -0.496244        1.345760
H           0.145470        1.459353        1.564875
C          -0.331179        1.393405        0.046163
H          -0.833160        0.188213       -1.042384
H          -2.189970       -0.658311       -0.524500
16
reaction_000_gen_9_frame_0529
H           0.556730       -1.932164       -2.004840
C           0.480920       -1.710673       -0.415636
H           1.021902       -1.071188       -0.696287
C           0.730259        0.389023        0.130814
H           0.930710       -0.516652        0.283992
H           2.245466        0.868173       -0.664685
H           0.760708       -0.725570        1.382272
C          -0.339526       -0.995514       -1.126906
H          -0.418728        1.762923       -0.592262
C          -0.607235        1.783068        1.254871
H          -1.519188        0.211466        1.092564
C          -0.657865       -0.433842        1.326577
H           0.193840        1.485384        1.584387
C          -0.396049        1.335094        0.019338
H          -0.840950        0.186669       -1.096853
H          -2.140995       -0.636197       -0.477347
16
reaction_000_gen_9_frame_0530
H           0.542069       -1.951876       -1.998346
C           0.481683       -1.661697       -0.371995
H           1.043390       -1.003089       -0.688381
C           0.614795        0.358383        0.131616
H           0.897007       -0.538880        0.302816
H           2.230049        0.877113       -0.675663
H           0.747266       -0.731991        1.353386
C          -0.290596       -0.998962       -1.170350
H          -0.460797        1.783759       -0.547232
C          -0.549011        1.763347        1.283935
H          -1.471341        0.233119        1.150732
C          -0.664258       -0.453326        1.304837
H           0.196870        1.504649        1.553239
C          -0.441025        1.417689       -0.025580
H          -0.752615        0.078393       -1.086285
H          -2.123485       -0.676631       -0.516729
16
reaction_000_gen_9_frame_0531
H           0.499035       -1.966809       -2.060317
C           0.479908       -1.724864       -0.445912
H           1.060314       -0.955632       -0.681503
C           0.632914        0.435174        0.169152
H           0.898451       -0.549153        0.277613
H           2.167943        0.891791       -0.656656
H           0.717142       -0.756893        1.368588
C          -0.213848       -1.033409       -1.111135
H          -0.476403        1.772895       -0.512201
C          -0.558687        1.751747        1.263847
H          -1.445123        0.158838        1.174449
C          -0.718976       -0.435386        1.287880
H           0.139531        1.610715        1.560040
C          -0.356997        1.372673       -0.095449
H          -0.731556        0.060125       -1.025512
H          -2.093649       -0.631812       -0.512883
16
reaction_000_gen_9_frame_0532
H           0.493182       -1.891507       -2.058705
C           0.542131       -1.656942       -0.339244
H           1.053084       -1.041859       -0.699182
C           0.599820        0.507416        0.096330
H           0.968424       -0.505611        0.290987
H           2.133197        0.838774       -0.649759
H           0.679906       -0.870554        1.322675
C          -0.289333       -1.056015       -1.167273
H          -0.363890        1.651850       -0.474531
C          -0.600909        1.798707        1.345522
H          -1.510224        0.227013        1.085930
C          -0.716481       -0.454025        1.397542
H           0.072345        1.600377        1.592692
C          -0.306032        1.386969       -0.140578
H          -0.639996        0.091173       -1.129506
H          -2.115223       -0.625767       -0.472899
16
reaction_000_gen_9_frame_0533
H           0.491485       -1.845148       -2.066377
C           0.499619       -1.663816       -0.329801
H           1.093161       -1.090754       -0.743325
C           0.535811        0.447162        0.113510
H           0.966357       -0.470523        0.288579
H           2.090564        0.859632       -0.630180
H           0.723859       -0.906861        1.278391
C          -0.283031       -1.085233       -1.178697
H          -0.392604        1.701988       -0.497047
C          -0.606874        1.738737        1.349653
H          -1.436760        0.211646        1.097674
C          -0.738002       -0.407801        1.414106
H           0.019886        1.643582        1.572136
C          -0.249950        1.395036       -0.105381
H          -0.583795        0.158741       -1.121500
H          -2.129726       -0.686388       -0.441740
16
reaction_000_gen_9_frame_0534
H           0.483346       -1.845119       -2.009226
C           0.492679       -1.597676       -0.376088
H           1.207243       -1.076389       -0.785186
C           0.525912        0.490811        0.084811
H           0.960437       -0.448461        0.266556
H           2.105126        0.881591       -0.648435
H           0.689245       -0.994971        1.287812
C          -0.282753       -1.109024       -1.164717
H          -0.353087        1.689086       -0.552286
C          -0.530477        1.705884        1.384934
H          -1.472168        0.225522        1.079524
C          -0.802934       -0.430493        1.395716
H          -0.005140        1.607217        1.641994
C          -0.275887        1.455100       -0.088455
H          -0.572345        0.170539       -1.130481
H          -2.169198       -0.723619       -0.386472
16
reaction_000_gen_9_frame_0535
H           0.401596       -1.822324       -1.971434
C           0.507228       -1.584057       -0.416173
H           1.237790       -1.067721       -0.794575
C           0.554749        0.498453        0.117634
H           1.016576       -0.452800        0.258739
H           2.090950        0.877407       -0.646697
H           0.755113       -0.964053        1.293987
C          -0.299573       -1.201184       -1.140921
H          -0.271684        1.716333       -0.486214
C          -0.497599        1.682736        1.283986
H          -1.525519        0.221519        1.029445
C          -0.867055       -0.421996        1.416448
H          -0.030563        1.581848        1.629030
C          -0.362985        1.361023       -0.080792
H          -0.568939        0.261235       -1.090591
H          -2.140084       -0.686420       -0.401874
16
reaction_000_gen_9_frame_0536
H           0.384504       -1.857126       -2.006367
C           0.477148       -1.606415       -0.433969
H           1.188432       -1.015170       -0.785008
C           0.606027        0.492683        0.121526
H           1.080035       -0.483089        0.290651
H           2.119552        0.921053       -0.665554
H           0.747624       -1.015222        1.256000
C          -0.379804       -1.208457       -1.182653
H          -0.314948        1.805228       -0.432063
C          -0.402285        1.657743        1.273679
H          -1.552830        0.184755        1.095114
C          -0.895782       -0.420571        1.425563
H          -0.039132        1.560676        1.536268
C          -0.303708        1.373938       -0.020369
H          -0.594325        0.277703       -1.127879
H          -2.120506       -0.667728       -0.344940
16
reaction_000_gen_9_frame_0537
H           0.287323       -1.865927       -2.023182
C           0.472654       -1.608379       -0.421551
H           1.158161       -1.082824       -0.755187
C           0.570214        0.531028        0.146055
H           1.133493       -0.472592        0.269380
H           2.106511        0.884002       -0.733698
H           0.830183       -0.979074        1.252546
C          -0.347330       -1.248768       -1.190764
H          -0.344976        1.799900       -0.420520
C          -0.473343        1.707558        1.330318
H          -1.552257        0.154046        1.068128
C          -0.908374       -0.396501        1.457023
H          -0.022514        1.516836        1.564271
C          -0.260296        1.331727        0.021538
H          -0.497341        0.357053       -1.195939
H          -2.152110       -0.628084       -0.368418
16
reaction_000_gen_9_frame_0538
H           0.285485       -1.874611       -2.032990
C           0.551800       -1.568320       -0.437688
H           1.201107       -1.135088       -0.768013
C           0.643863        0.514855        0.202778
H           1.128637       -0.465544        0.174131
H           2.159899        0.933396       -0.658525
H           0.757831       -1.014340        1.226680
C          -0.314793       -1.243364       -1.211939
H          -0.365613        1.775504       -0.312747
C          -0.438785        1.689937        1.334299
H          -1.598382        0.165547        1.059278
C          -0.938030       -0.416823        1.412279
H          -0.034920        1.515675        1.627578
C          -0.266801        1.429898       -0.010291
H          -0.590601        0.369981       -1.219768
H          -2.180697       -0.676703       -0.385062
16
reaction_000_gen_9_frame_0539
H           0.297864       -1.846269       -1.987261
C           0.473083       -1.577448       -0.516408
H           1.180181       -1.224733       -0.793107
C           0.738929        0.539930        0.220197
H           1.178468       -0.509165        0.229797
H           2.124508        0.950479       -0.684152
H           0.773809       -1.108904        1.227038
C          -0.224008       -1.213723       -1.180816
H          -0.365679        1.808470       -0.293514
C          -0.489938        1.643728        1.273478
H          -1.613957        0.209865        1.132915
C          -1.029094       -0.405348        1.407891
H          -0.055367        1.540419        1.614822
C          -0.173541        1.500891       -0.015224
H          -0.595475        0.321226       -1.232676
H          -2.219783       -0.629419       -0.402981
16
reaction_000_gen_9_frame_0540
H           0.335679       -1.867403       -1.912138
C           0.461888       -1.597749       -0.597751
H           1.162116       -1.184706       -0.829404
C           0.692588        0.438837        0.254761
H           1.200390       -0.524009        0.273887
H           2.120109        0.980938       -0.745627
H           0.829063       -1.108361        1.243026
C          -0.253458       -1.202070       -1.057788
H          -0.350274        1.811723       -0.208890
C          -0.466808        1.736615        1.294578
H          -1.607379        0.161684        1.058225
C          -1.032308       -0.336946        1.295071
H          -0.042720        1.486211        1.630263
C          -0.126140        1.574102       -0.024694
H          -0.637292        0.326178       -1.246085
H          -2.285456       -0.695045       -0.427435
16
reaction_000_gen_9_frame_0541
H           0.373721       -1.857847       -1.874696
C           0.387830       -1.539019       -0.608195
H           1.101270       -1.200589       -0.841779
C           0.764995        0.450973        0.278022
H           1.284307       -0.455767        0.212602
H           2.171075        0.963147       -0.737296
H           0.828874       -1.104733        1.232539
C          -0.227373       -1.286315       -1.083141
H          -0.349659        1.758352       -0.199572
C          -0.504213        1.693341        1.301677
H          -1.672137        0.160920        1.095169
C          -1.074902       -0.310105        1.252086
H          -0.101354        1.504683        1.636240
C          -0.082231        1.616936       -0.016818
H          -0.588201        0.334072       -1.182508
H          -2.312001       -0.728048       -0.464330
16
reaction_000_gen_9_frame_0542
H           0.393609       -1.855351       -1.804368
C           0.342221       -1.579555       -0.609268
H           1.134273       -1.234490       -0.905308
C           0.776145        0.507856        0.211281
H           1.316846       -0.424576        0.170089
H           2.130430        0.933916       -0.731851
H           0.802953       -1.057374        1.234477
C          -0.299591       -1.299913       -1.037831
H          -0.344466        1.757775       -0.215934
C          -0.525299        1.729721        1.416341
H          -1.681433        0.180406        1.082952
C          -1.077557       -0.349846        1.150261
H          -0.066489        1.494431        1.660537
C          -0.122852        1.679135        0.012719
H          -0.542949        0.315480       -1.188173
H          -2.235840       -0.797615       -0.445924
16
reaction_000_gen_9_frame_0543
H           0.410707       -1.846895       -1.804792
C           0.239074       -1.616148       -0.542023
H           1.109076       -1.174150       -0.868698
C           0.770455        0.513223        0.146958
H           1.292771       -0.355231        0.264300
H           2.249674        0.998119       -0.763281
H           0.737830       -1.075499        1.234279
C          -0.266983       -1.298351       -1.049895
H          -0.359891        1.668968       -0.238871
C          -0.532991        1.677580        1.367550
H          -1.685162        0.083805        1.153318
C          -1.136644       -0.354440        1.090307
H          -0.008970        1.561005        1.652529
C          -0.151441        1.615837       -0.007671
H          -0.502850        0.399838       -1.207610
H          -2.164656       -0.797660       -0.426401
16
reaction_000_gen_9_frame_0544
H           0.377011       -1.890722       -1.880561
C           0.260722       -1.629467       -0.552791
H           1.044234       -1.235911       -0.769630
C           0.792063        0.536554        0.145127
H           1.271992       -0.403907        0.191774
H           2.334800        1.123110       -0.770007
H           0.738685       -1.005628        1.236025
C          -0.271956       -1.239794       -1.024624
H          -0.312429        1.681170       -0.168709
C          -0.544495        1.658564        1.300942
H          -1.634226        0.064009        1.104809
C          -1.130391       -0.436546        1.069246
H          -0.085614        1.545763        1.745770
C          -0.164934        1.683471       -0.020974
H          -0.486634        0.326786       -1.253271
H          -2.188827       -0.777451       -0.353127
16
reaction_000_gen_9_frame_0545
H           0.399803       -1.831912       -1.864972
C           0.192611       -1.630079       -0.561109
H           1.033364       -1.247836       -0.777591
C           0.755493        0.628394        0.062810
H           1.312494       -0.452661        0.257397
H           2.308168        1.114984       -0.782634
H           0.760567       -1.006080        1.186969
C          -0.173513       -1.146277       -0.991179
H          -0.303426        1.664515       -0.183946
C          -0.512044        1.634696        1.390881
H          -1.595475        0.018565        1.134829
C          -1.104618       -0.419539        1.048091
H          -0.188717        1.519502        1.774627
C          -0.155160        1.674734       -0.036903
H          -0.496612        0.312211       -1.324430
H          -2.232935       -0.833218       -0.332840
16
reaction_000_gen_9_frame_0546
H           0.388236       -1.862506       -1.850116
C           0.180076       -1.609318       -0.573541
H           0.972159       -1.142039       -0.814781
C           0.812448        0.704045        0.038604
H           1.298087       -0.563687        0.231012
H           2.398656        1.062719       -0.727628
H           0.706887       -0.959295        1.165030
C          -0.278645       -1.187898       -0.979123
H          -0.311778        1.646876       -0.214082
C          -0.532118        1.555702        1.378977
H          -1.582705       -0.012681        1.105722
C          -1.058481       -0.338382        1.040347
H          -0.184136        1.474834        1.820983
C          -0.160161        1.652063        0.047371
H          -0.525242        0.387431       -1.333127
H          -2.123282       -0.807863       -0.335647
16
reaction_000_gen_9_frame_0547
H           0.350816       -1.894096       -1.877414
C           0.264627       -1.628343       -0.568306
H           1.044606       -1.148009       -0.844400
C           0.774492        0.703262        0.042908
H           1.295923       -0.548228        0.226323
H           2.370482        1.038990       -0.717789
H           0.645419       -0.933611        1.172565
C          -0.318949       -1.208130       -1.004195
H          -0.275665        1.724374       -0.118388
C          -0.495344        1.454296        1.369756
H          -1.622052       -0.019934        1.148299
C          -0.987866       -0.268592        0.942077
H          -0.228877        1.452072        1.853309
C          -0.180520        1.647639        0.054874
H          -0.467023        0.409838       -1.282583
H          -2.170070       -0.781527       -0.397035
16
reaction_000_gen_9_frame_0548
H           0.402854       -1.951583       -1.887822
C           0.255555       -1.641509       -0.592703
H           1.091856       -1.104807       -0.808074
C           0.839962        0.736319        0.043316
H           1.242790       -0.526701        0.249343
H           2.360473        1.011077       -0.720662
H           0.670740       -0.959684        1.138148
C          -0.375894       -1.183796       -1.057701
H          -0.282738        1.726917       -0.114208
C          -0.502908        1.465159        1.413970
H          -1.582314       -0.005285        1.114925
C          -0.934698       -0.264023        0.898990
H          -0.273412        1.470850        1.897714
C          -0.203369        1.664848        0.143603
H          -0.500616        0.353411       -1.358780
H          -2.208279       -0.791192       -0.360059
16
reaction_000_gen_9_frame_0549
H           0.470343       -2.033324       -1.958629
C           0.236502       -1.608993       -0.524199
H           1.118393       -1.079364       -0.817743
C           0.825629        0.777218        0.079819
H           1.226844       -0.515319        0.291551
H           2.337552        1.035200       -0.717274
H           0.725219       -0.965063        1.250364
C          -0.414225       -1.173263       -1.086863
H          -0.175574        1.684969       -0.112454
C          -0.559090        1.448625        1.406061
H          -1.639886        0.005344        1.093340
C          -0.946323       -0.257863        0.916328
H          -0.311801        1.517940        1.829172
C          -0.207769        1.559514        0.109831
H          -0.471909        0.357644       -1.378752
H          -2.213906       -0.753264       -0.380551
16
reaction_000_gen_9_frame_0550
H           0.479383       -1.987159       -1.981852
C           0.207976       -1.557696       -0.578511
H           1.116029       -1.041728       -0.770727
C           0.804917        0.796377        0.109197
H           1.231625       -0.615343        0.398465
H           2.387828        1.066730       -0.813647
H           0.756036       -1.009602        1.248465
C          -0.444247       -1.215251       -1.033861
H          -0.199974        1.643850       -0.159496
C          -0.561585        1.494278        1.393473
H          -1.618846       -0.034302        1.127332
C          -0.994002       -0.221982        0.918722
H          -0.264263        1.620323        1.749066
C          -0.186770        1.554753        0.110350
H          -0.431524        0.275815       -1.293227
H          -2.282583       -0.769063       -0.423749
16
reaction_000_gen_9_frame_0551
H           0.586605       -1.986188       -1.913273
C           0.202297       -1.625063       -0.561458
H           1.179188       -0.989382       -0.710238
C           0.681889        0.795545        0.008240
H           1.271220       -0.579576        0.391884
H           2.358606        1.056401       -0.805463
H           0.723711       -0.950017        1.234719
C          -0.458750       -1.140115       -1.064605
H          -0.144455        1.702339       -0.163407
C          -0.489420        1.498677        1.380215
H          -1.579328        0.007117        1.141735
C          -1.048135       -0.313406        0.957100
H          -0.267721        1.595617        1.706124
C          -0.192796        1.610133        0.090647
H          -0.462586        0.231336       -1.266457
H          -2.360326       -0.913418       -0.425761
16
reaction_000_gen_9_frame_0552
H           0.543074       -2.011411       -1.898043
C           0.221768       -1.632316       -0.496952
H           1.154662       -0.941853       -0.686871
C           0.689528        0.794634        0.006101
H           1.253463       -0.613270        0.349304
H           2.299643        1.113905       -0.841293
H           0.720656       -1.007476        1.216952
C          -0.430308       -1.170149       -1.076704
H          -0.149158        1.677265       -0.145342
C          -0.472190        1.486096        1.401103
H          -1.552058       -0.012383        1.050723
C          -1.019700       -0.324302        1.026809
H          -0.291231        1.559927        1.720399
C          -0.215139        1.699018        0.092599
H          -0.405432        0.296811       -1.255592
H          -2.347577       -0.914496       -0.463193
16
reaction_000_gen_9_frame_0553
H           0.451734       -1.954104       -1.799618
C           0.188729       -1.682478       -0.513709
H           1.159660       -0.891793       -0.721133
C           0.640566        0.784420       -0.009888
H           1.282122       -0.616425        0.377660
H           2.387747        1.159829       -0.875964
H           0.682289       -1.048795        1.224986
C          -0.346159       -1.198091       -1.017036
H          -0.122762        1.636824       -0.134211
C          -0.498301        1.549314        1.418161
H          -1.631999       -0.073614        1.007605
C          -1.043386       -0.305372        1.090190
H          -0.253557        1.569798        1.642965
C          -0.185604        1.744914        0.123735
H          -0.380307        0.255833       -1.291686
H          -2.330773       -0.930261       -0.522055
16
reaction_000_gen_9_frame_0554
H           0.453651       -1.992039       -1.817860
C           0.175579       -1.610997       -0.502563
H           1.130447       -0.954457       -0.647714
C           0.661194        0.738937       -0.043106
H           1.208148       -0.628177        0.412523
H           2.425443        1.189547       -0.893826
H           0.662115       -1.052948        1.211922
C          -0.328508       -1.215858       -0.900067
H          -0.102119        1.641355       -0.060054
C          -0.504208        1.552669        1.355680
H          -1.573655       -0.060892        0.928860
C          -1.140304       -0.261770        1.081977
H          -0.249876        1.506933        1.518717
C          -0.205287        1.775833        0.156798
H          -0.272779        0.250645       -1.240133
H          -2.339841       -0.878781       -0.561155
16
reaction_000_gen_9_frame_0555
H           0.398506       -2.036233       -1.857180
C           0.195139       -1.665736       -0.452202
H           1.065020       -0.896224       -0.726115
C           0.660551        0.742415        0.013247
H           1.243575       -0.593924        0.435533
H           2.427427        1.182721       -0.986310
H           0.648919       -1.017614        1.177790
C          -0.307166       -1.180713       -0.877118
H          -0.159099        1.574458       -0.007814
C          -0.479740        1.516416        1.407111
H          -1.586223       -0.067252        0.916707
C          -1.147736       -0.281132        1.065172
H          -0.240943        1.494456        1.527838
C          -0.183624        1.856537        0.147343
H          -0.199783        0.203341       -1.235941
H          -2.334823       -0.831514       -0.548059
16
reaction_000_gen_9_frame_0556
H           0.499568       -2.038304       -1.906447
C           0.201337       -1.667334       -0.538119
H           1.065176       -0.882749       -0.694284
C           0.684137        0.624692       -0.007998
H           1.222527       -0.535913        0.465757
H           2.489079        1.210959       -0.969504
H           0.584235       -1.115144        1.213775
C          -0.279866       -1.170400       -0.878730
H          -0.183188        1.584097       -0.059130
C          -0.510760        1.539812        1.458488
H          -1.610811       -0.007386        0.888491
C          -1.187324       -0.245566        1.117042
H          -0.244525        1.456119        1.561387
C          -0.168182        1.918882        0.151829
H          -0.248313        0.150340       -1.253201
H          -2.313089       -0.822106       -0.549357
16
reaction_000_gen_9_frame_0557
H           0.529696       -2.068959       -1.964592
C           0.143060       -1.640491       -0.541422
H           1.094175       -0.836871       -0.687205
C           0.674586        0.634060       -0.040291
H           1.239766       -0.539008        0.499611
H           2.430103        1.236908       -0.992806
H           0.600137       -1.116073        1.178666
C          -0.296636       -1.225585       -0.855418
H          -0.115160        1.554179       -0.092987
C          -0.565423        1.533742        1.384937
H          -1.611855       -0.027258        0.887203
C          -1.207786       -0.245866        1.193644
H          -0.240466        1.463315        1.551895
C          -0.148576        1.950265        0.220037
H          -0.238903        0.169744       -1.237129
H          -2.286716       -0.842101       -0.504142
16
reaction_000_gen_9_frame_0558
H           0.553532       -2.087004       -1.904365
C           0.198920       -1.580545       -0.463877
H           1.112583       -0.820682       -0.704031
C           0.644764        0.687029        0.016352
H           1.246950       -0.556698        0.430214
H           2.527789        1.279095       -1.027537
H           0.589589       -1.158420        1.156537
C          -0.303498       -1.248891       -0.841707
H          -0.167230        1.528436       -0.089776
C          -0.616077        1.549670        1.358510
H          -1.645254        0.001130        0.901886
C          -1.170396       -0.267851        1.132974
H          -0.238082        1.452633        1.490219
C          -0.255119        1.908451        0.257653
H          -0.208828        0.209899       -1.209453
H          -2.269644       -0.896251       -0.503599
16
reaction_000_gen_9_frame_0559
H           0.533502       -1.974146       -1.923360
C           0.252153       -1.616800       -0.538604
H           1.150529       -0.838781       -0.693341
C           0.597768        0.732964       -0.067631
H           1.214055       -0.570021        0.559486
H           2.572060        1.265661       -0.980992
H           0.562445       -1.185877        1.234487
C          -0.381254       -1.291662       -0.943957
H          -0.120453        1.568362       -0.062491
C          -0.573443        1.487677        1.326537
H          -1.585254        0.045029        0.926367
C          -1.122854       -0.217411        1.119802
H          -0.217112        1.381452        1.517190
C          -0.349187        1.885796        0.259122
H          -0.223117        0.246109       -1.213795
H          -2.309837       -0.918350       -0.518819
16
reaction_000_gen_9_frame_0560
H           0.563833       -1.970156       -1.935629
C           0.196820       -1.589378       -0.557373
H           1.133334       -0.747926       -0.665150
C           0.610862        0.748569       -0.041422
H           1.252462       -0.544020        0.501104
H           2.503231        1.197473       -0.972762
H           0.466228       -1.187254        1.221347
C          -0.366910       -1.379390       -0.931617
H          -0.125115        1.550461        0.014782
C          -0.537102        1.453334        1.333380
H          -1.579240        0.079828        0.862337
C          -1.085433       -0.233096        1.134099
H          -0.175098        1.385153        1.488612
C          -0.368973        1.857058        0.281244
H          -0.262240        0.317736       -1.217212
H          -2.226661       -0.938392       -0.515739
16
reaction_000_gen_9_frame_0561
H           0.530414       -2.019618       -1.916673
C           0.196206       -1.543986       -0.524691
H           1.197021       -0.741414       -0.633455
C           0.640015        0.770301       -0.075949
H           1.276419       -0.491657        0.515837
H           2.454587        1.259535       -0.990047
H           0.450340       -1.184130        1.239198
C          -0.387792       -1.323260       -0.951991
H          -0.115978        1.520916        0.008309
C          -0.598857        1.392633        1.336522
H          -1.662952        0.022529        0.892378
C          -1.130876       -0.258625        1.064650
H          -0.179991        1.296270        1.505775
C          -0.281623        1.917429        0.325754
H          -0.198120        0.291029       -1.314764
H          -2.188812       -0.907953       -0.480853
16
reaction_000_gen_9_frame_0562
H           0.548385       -2.036259       -1.833686
C           0.246371       -1.436671       -0.600924
H           1.184257       -0.707381       -0.666765
C           0.645853        0.794019       -0.154075
H           1.225443       -0.542781        0.577620
H           2.384463        1.251087       -1.058975
H           0.494317       -1.202027        1.214420
C          -0.347542       -1.403484       -0.889938
H          -0.197099        1.546568        0.065366
C          -0.503641        1.374637        1.248305
H          -1.616087        0.081820        0.927911
C          -1.162534       -0.266898        1.097185
H          -0.244092        1.283510        1.501266
C          -0.269682        1.877837        0.341483
H          -0.198613        0.246858       -1.254851
H          -2.189801       -0.860835       -0.514343
16
reaction_000_gen_9_frame_0563
H           0.541004       -2.048019       -1.778876
C           0.310119       -1.350893       -0.634162
H           1.176313       -0.767217       -0.597474
C           0.701904        0.789560       -0.124785
H           1.161125       -0.597069        0.588694
H           2.391408        1.274408       -1.100528
H           0.498224       -1.230971        1.164349
C          -0.407055       -1.402660       -0.923754
H          -0.209956        1.469658        0.032694
C          -0.487716        1.375221        1.237763
H          -1.571989        0.118480        0.917561
C          -1.200496       -0.248764        1.154601
H          -0.273284        1.300234        1.534110
C          -0.240409        1.891234        0.295048
H          -0.153211        0.299831       -1.277267
H          -2.235980       -0.873033       -0.487971
16
reaction_000_gen_9_frame_0564
H           0.681603       -2.063418       -1.784323
C           0.218852       -1.411796       -0.649237
H           1.127868       -0.813825       -0.566560
C           0.698499        0.732229       -0.069690
H           1.152667       -0.610950        0.619311
H           2.373015        1.309631       -1.182711
H           0.535514       -1.189809        1.100439
C          -0.447131       -1.479585       -0.947408
H          -0.164783        1.548522        0.079116
C          -0.494893        1.466070        1.274482
H          -1.596128        0.191149        0.976152
C          -1.277847       -0.263446        1.168609
H          -0.229022        1.289099        1.438521
C          -0.164771        1.842235        0.289283
H          -0.154697        0.290109       -1.227147
H          -2.258745       -0.836215       -0.518839
16
reaction_000_gen_9_frame_0565
H           0.663962       -2.097620       -1.672914
C           0.259613       -1.406309       -0.650429
H           1.045750       -0.774516       -0.576340
C           0.668908        0.681165       -0.017917
H           1.223011       -0.548217        0.586157
H           2.429470        1.279565       -1.224262
H           0.540209       -1.234560        1.091391
C          -0.492224       -1.529180       -1.002000
H          -0.139507        1.562160        0.071065
C          -0.612778        1.455315        1.287323
H          -1.568287        0.217028        1.030398
C          -1.267962       -0.237002        1.136615
H          -0.175573        1.241899        1.402030
C          -0.171347        1.904842        0.299940
H          -0.142024        0.290639       -1.253440
H          -2.261223       -0.805210       -0.507618
16
reaction_000_gen_9_frame_0566
H           0.642499       -2.124519       -1.721491
C           0.240637       -1.447832       -0.638230
H           1.102594       -0.764561       -0.567926
C           0.666666        0.729602       -0.058872
H           1.274609       -0.550486        0.593622
H           2.443413        1.216315       -1.198684
H           0.477175       -1.218662        1.110117
C          -0.431253       -1.471412       -0.966286
H          -0.104135        1.571871        0.039053
C          -0.777807        1.409671        1.337396
H          -1.550006        0.200955        1.004837
C          -1.249977       -0.264846        1.094719
H          -0.187048        1.256859        1.410061
C          -0.163043        1.979303        0.303426
H          -0.148423        0.288057       -1.245558
H          -2.235901       -0.810316       -0.496186
16
reaction_000_gen_9_frame_0567
H           0.667161       -2.052076       -1.726794
C           0.269497       -1.424131       -0.627667
H           1.108000       -0.752512       -0.518173
C           0.680420        0.658968       -0.050876
H           1.248385       -0.552728        0.501788
H           2.468806        1.197077       -1.170972
H           0.477305       -1.229247        1.172251
C          -0.473375       -1.448287       -1.036111
H          -0.035838        1.550239        0.142237
C          -0.773698        1.433137        1.329180
H          -1.634490        0.094820        1.048273
C          -1.202115       -0.243612        1.062788
H          -0.135411        1.264528        1.439618
C          -0.184174        2.021770        0.237005
H          -0.220825        0.276565       -1.321451
H          -2.259647       -0.794510       -0.481097
16
reaction_000_gen_9_frame_0568
H           0.649974       -2.077124       -1.685041
C           0.217765       -1.372581       -0.588702
H           0.970965       -0.809101       -0.487197
C           0.758682        0.633568       -0.033950
H           1.303801       -0.515280        0.432647
H           2.503171        1.153479       -1.167984
H           0.495097       -1.230027        1.188944
C          -0.432216       -1.404712       -1.031629
H           0.059202        1.548867        0.080246
C          -0.825543        1.516133        1.370511
H          -1.667475        0.074095        0.964365
C          -1.221844       -0.247931        0.995732
H          -0.133781        1.219739        1.502038
C          -0.250927        2.026406        0.304691
H          -0.196127        0.253502       -1.376451
H          -2.230746       -0.769033       -0.468218
16
reaction_000_gen_9_frame_0569
H           0.603616       -2.020804       -1.720249
C           0.277690       -1.343258       -0.573050
H           1.018975       -0.914539       -0.548730
C           0.759901        0.632675       -0.001631
H           1.306649       -0.567636        0.529825
H           2.492715        1.196853       -1.111889
H           0.471171       -1.346556        1.185890
C          -0.399488       -1.435461       -1.029452
H           0.050051        1.591682        0.035849
C          -0.781418        1.543472        1.320022
H          -1.643393        0.110787        0.924578
C          -1.201690       -0.171379        0.996861
H          -0.218375        1.259672        1.552956
C          -0.270378        1.988208        0.300875
H          -0.211884        0.222371       -1.382936
H          -2.254143       -0.746086       -0.478919
16
reaction_000_gen_9_frame_0570
H           0.584626       -2.103121       -1.664921
C           0.267421       -1.306929       -0.532619
H           0.984947       -0.999221       -0.628438
C           0.700441        0.556050        0.059261
H           1.228099       -0.490089        0.571569
H           2.546555        1.207118       -1.199384
H           0.518935       -1.347262        1.127477
C          -0.375577       -1.341180       -0.991612
H           0.043151        1.612595        0.057804
C          -0.791954        1.582497        1.277319
H          -1.665048       -0.015582        0.856563
C          -1.204339       -0.183634        1.064708
H          -0.197092        1.265785        1.592607
C          -0.253102        1.996189        0.309989
H          -0.226350        0.271987       -1.404659
H          -2.160714       -0.705203       -0.495663
16
reaction_000_gen_9_frame_0571
H           0.526734       -2.157062       -1.620921
C           0.331845       -1.294878       -0.540679
H           1.061069       -1.002303       -0.604991
C           0.777413        0.554037        0.052141
H           1.205402       -0.446779        0.541648
H           2.553390        1.184759       -1.311164
H           0.558438       -1.301817        1.154601
C          -0.445675       -1.390036       -1.024652
H          -0.039357        1.667773        0.093931
C          -0.712643        1.641406        1.262402
H          -1.637812       -0.039230        0.932903
C          -1.216170       -0.272242        1.078968
H          -0.292471        1.281017        1.634860
C          -0.264050        2.063953        0.287098
H          -0.249861        0.196461       -1.441023
H          -2.156251       -0.685060       -0.495121
16
reaction_000_gen_9_frame_0572
H           0.594054       -2.158290       -1.671017
C           0.255202       -1.247837       -0.531462
H           1.021781       -0.945525       -0.597744
C           0.770853        0.630890        0.074579
H           1.241192       -0.421203        0.553962
H           2.622007        1.213775       -1.270303
H           0.504433       -1.371590        1.146531
C          -0.503778       -1.403342       -1.040888
H          -0.012349        1.741386        0.147690
C          -0.719584        1.555730        1.239799
H          -1.594054       -0.038008        0.921715
C          -1.257862       -0.289975        1.084357
H          -0.331185        1.260301        1.627758
C          -0.223609        2.002696        0.215910
H          -0.239702        0.144164       -1.439612
H          -2.127398       -0.673168       -0.461276
16
reaction_000_gen_9_frame_0573
H           0.622799       -2.163470       -1.672263
C           0.278256       -1.295971       -0.545123
H           1.063468       -0.890879       -0.571599
C           0.759344        0.638900        0.091449
H           1.254224       -0.419781        0.595769
H           2.580765        1.121293       -1.200167
H           0.502188       -1.374999        1.186765
C          -0.540695       -1.453380       -1.064021
H          -0.059130        1.759948        0.110584
C          -0.726160        1.534935        1.139232
H          -1.537649       -0.111387        0.825071
C          -1.259590       -0.241601        1.096422
H          -0.334415        1.280306        1.634286
C          -0.173481        2.011871        0.231095
H          -0.308389        0.180840       -1.441291
H          -2.121534       -0.576624       -0.416210
16
reaction_000_gen_9_frame_0574
H           0.487492       -2.040718       -1.693853
C           0.305046       -1.252872       -0.527650
H           0.999713       -0.914154       -0.580045
C           0.744492        0.563227        0.086844
H           1.261247       -0.450223        0.631410
H           2.683528        1.071650       -1.221204
H           0.426594       -1.358951        1.170121
C          -0.522407       -1.484745       -1.049675
H          -0.041198        1.828287        0.123771
C          -0.630289        1.526070        1.061020
H          -1.551655       -0.135708        0.830043
C          -1.286901       -0.220571        1.187396
H          -0.252872        1.232167        1.642008
C          -0.155399        2.043344        0.210873
H          -0.323238        0.214516       -1.420132
H          -2.144152       -0.621320       -0.450929
16
reaction_000_gen_9_frame_0575
H           0.526976       -1.957749       -1.662138
C           0.298125       -1.245391       -0.558829
H           0.938734       -0.970985       -0.577119
C           0.804133        0.552074        0.148222
H           1.259172       -0.492748        0.625175
H           2.640734        1.096944       -1.253732
H           0.371450       -1.327464        1.150422
C          -0.595866       -1.486458       -1.054729
H          -0.048938        1.813146        0.177730
C          -0.585069        1.600403        1.101012
H          -1.529441       -0.123064        0.765661
C          -1.287498       -0.254658        1.166422
H          -0.228134        1.275942        1.582032
C          -0.153918        2.008268        0.250011
H          -0.327447        0.132788       -1.419459
H          -2.083014       -0.621048       -0.440681
16
reaction_000_gen_9_frame_0576
H           0.576169       -2.031601       -1.634223
C           0.277020       -1.242506       -0.564901
H           0.912174       -0.960040       -0.558343
C           0.765212        0.511200        0.099073
H           1.175379       -0.483855        0.626939
H           2.622779        1.133583       -1.258331
H           0.303863       -1.297148        1.201061
C          -0.550003       -1.408427       -1.023844
H          -0.031397        1.789511        0.218189
C          -0.575791        1.615422        1.041610
H          -1.467248       -0.127182        0.757072
C          -1.179808       -0.240426        1.070427
H          -0.222925        1.206662        1.673628
C          -0.184877        1.934134        0.240594
H          -0.341473        0.160747       -1.447670
H          -2.079075       -0.560074       -0.441282
16
reaction_000_gen_9_frame_0577
H           0.521414       -2.030153       -1.632784
C           0.240736       -1.229652       -0.649093
H           0.983141       -0.915351       -0.641713
C           0.757900        0.560126        0.086265
H           1.182752       -0.544566        0.638221
H           2.572015        1.079351       -1.250295
H           0.336209       -1.344932        1.247921
C          -0.557271       -1.398172       -1.038511
H           0.001321        1.719021        0.254981
C          -0.668731        1.638574        1.036851
H          -1.426025       -0.113544        0.722343
C          -1.206175       -0.219334        1.138910
H          -0.143830        1.282822        1.633693
C          -0.202151        1.866687        0.215956
H          -0.359156        0.219447       -1.402142
H          -2.032151       -0.570325       -0.360601
16
reaction_000_gen_9_frame_0578
H           0.557137       -2.036484       -1.646801
C           0.253707       -1.267427       -0.653327
H           1.010206       -0.884424       -0.675808
C           0.772869        0.605292        0.097186
H           1.132671       -0.548101        0.578355
H           2.580628        1.056071       -1.268140
H           0.347104       -1.374536        1.289795
C          -0.513674       -1.349919       -0.991762
H          -0.069645        1.728247        0.295943
C          -0.661065        1.666902        1.052756
H          -1.349630       -0.134626        0.705450
C          -1.294781       -0.177466        1.105321
H          -0.159261        1.262112        1.659746
C          -0.191073        1.799768        0.218902
H          -0.343761        0.259198       -1.432860
H          -2.071432       -0.604605       -0.334756
16
reaction_000_gen_9_frame_0579
H           0.476136       -2.041290       -1.592339
C           0.293330       -1.214872       -0.745593
H           0.908771       -0.913935       -0.688458
C           0.759297        0.498756        0.090215
H           1.195695       -0.634095        0.560177
H           2.663063        1.094409       -1.202444
H           0.321237       -1.364911        1.253854
C          -0.521388       -1.301004       -0.934817
H          -0.067067        1.746836        0.315080
C          -0.728152        1.667402        1.089682
H          -1.329948       -0.145548        0.688784
C          -1.295915       -0.118419        1.111231
H          -0.171731        1.300951        1.658123
C          -0.090368        1.785313        0.251491
H          -0.353183        0.276510       -1.491721
H          -2.059778       -0.636103       -0.363265
16
reaction_000_gen_9_frame_0580
H           0.457044       -1.990281       -1.640206
C           0.306945       -1.181766       -0.748051
H           0.946786       -0.913425       -0.677168
C           0.813393        0.580969        0.148285
H           1.271906       -0.643131        0.592835
H           2.613246        1.061646       -1.186701
H           0.281245       -1.348986        1.291448
C          -0.528509       -1.322348       -0.878472
H          -0.123699        1.696788        0.379809
C          -0.741882        1.740880        1.094092
H          -1.380693       -0.161619        0.670401
C          -1.227703       -0.156252        1.065781
H          -0.148197        1.361033        1.600252
C          -0.066387        1.712194        0.119432
H          -0.365771        0.236365       -1.495117
H          -2.107724       -0.672069       -0.336620
16
reaction_000_gen_9_frame_0581
H           0.473658       -2.008755       -1.632947
C           0.398577       -1.241315       -0.850139
H           0.977760       -0.922173       -0.669582
C           0.831674        0.604121        0.113413
H           1.213981       -0.695922        0.605357
H           2.496487        1.065533       -1.174541
H           0.280069       -1.340266        1.366052
C          -0.530284       -1.266561       -0.883651
H          -0.148070        1.699520        0.358692
C          -0.702064        1.745523        1.036981
H          -1.419387       -0.158773        0.732244
C          -1.238993       -0.088522        1.050419
H          -0.162825        1.259688        1.608871
C          -0.068734        1.725028        0.138190
H          -0.280176        0.241803       -1.430355
H          -2.121673       -0.618928       -0.369003
16
reaction_000_gen_9_frame_0582
H           0.427269       -2.039611       -1.582395
C           0.348740       -1.226584       -0.889210
H           0.959052       -0.875160       -0.587317
C           0.823070        0.635670        0.080350
H           1.234462       -0.713654        0.553996
H           2.541227        1.037153       -1.134711
H           0.261209       -1.360729        1.295590
C          -0.559866       -1.344188       -0.914209
H          -0.173164        1.707058        0.341823
C          -0.715385        1.743744        1.029612
H          -1.402289       -0.055457        0.765787
C          -1.256421       -0.108873        1.058555
H          -0.072122        1.371408        1.666044
C          -0.065189        1.654405        0.170541
H          -0.233576        0.167939       -1.465845
H          -2.117017       -0.593124       -0.388611
16
reaction_000_gen_9_frame_0583
H           0.293740       -2.059119       -1.574861
C           0.357644       -1.226956       -0.849633
H           1.023912       -0.887385       -0.626764
C           0.794542        0.661185        0.104054
H           1.204730       -0.720195        0.524126
H           2.531039        1.055068       -1.150217
H           0.324212       -1.375155        1.332525
C          -0.586793       -1.363064       -0.912704
H          -0.171590        1.690389        0.290349
C          -0.677437        1.779862        1.022995
H          -1.444541       -0.044628        0.752609
C          -1.252412       -0.045031        1.069316
H          -0.116152        1.322589        1.699871
C           0.027869        1.642528        0.187264
H          -0.213934        0.220653       -1.483752
H          -2.094828       -0.650741       -0.385178
16
reaction_000_gen_9_frame_0584
H           0.290147       -2.045657       -1.592381
C           0.340318       -1.267643       -0.838309
H           0.977268       -0.846075       -0.557891
C           0.824292        0.642909       -0.004107
H           1.239403       -0.733112        0.491715
H           2.590128        0.988453       -1.165680
H           0.384314       -1.390401        1.334460
C          -0.530865       -1.394578       -0.984234
H          -0.203920        1.680192        0.261163
C          -0.651900        1.777103        1.074204
H          -1.441595       -0.041032        0.753146
C          -1.306198        0.027879        1.088691
H          -0.138667        1.290089        1.738161
C           0.002270        1.677089        0.157930
H          -0.254004        0.242893       -1.418898
H          -2.120988       -0.608110       -0.337969
16
reaction_000_gen_9_frame_0585
H           0.284652       -2.071684       -1.592109
C           0.358918       -1.291128       -0.881617
H           0.957955       -0.823822       -0.540920
C           0.811920        0.634201       -0.003282
H           1.282030       -0.737589        0.468441
H           2.603677        0.987127       -1.204009
H           0.399701       -1.368752        1.312112
C          -0.534252       -1.374610       -1.000765
H          -0.092545        1.672473        0.239152
C          -0.611508        1.800609        1.051542
H          -1.530385       -0.155390        0.818239
C          -1.325920        0.055355        1.104847
H          -0.109326        1.376350        1.787533
C          -0.062780        1.675817        0.197769
H          -0.258311        0.265968       -1.500211
H          -2.173828       -0.644925       -0.256720
16
reaction_000_gen_9_frame_0586
H           0.211472       -2.103498       -1.600100
C           0.370863       -1.288602       -0.887301
H           0.983689       -0.791498       -0.518965
C           0.792458        0.599847        0.016756
H           1.284850       -0.795489        0.513125
H           2.661274        0.994141       -1.224497
H           0.425321       -1.342306        1.353350
C          -0.530935       -1.303950       -1.008889
H          -0.148976        1.707929        0.177499
C          -0.584383        1.862120        1.042729
H          -1.569562       -0.222849        0.828901
C          -1.316548        0.100366        1.081090
H          -0.092401        1.336096        1.810730
C          -0.030784        1.639855        0.163878
H          -0.283142        0.300717       -1.466724
H          -2.173195       -0.692880       -0.281585
16
reaction_000_gen_9_frame_0587
H           0.197474       -2.162891       -1.604363
C           0.302239       -1.245774       -0.915490
H           1.053848       -0.736577       -0.479058
C           0.844621        0.562840        0.092407
H           1.281292       -0.788815        0.482940
H           2.633152        0.937858       -1.202499
H           0.433917       -1.304667        1.327982
C          -0.521109       -1.349165       -1.050356
H          -0.166114        1.773614        0.138372
C          -0.573972        1.835077        1.071435
H          -1.574759       -0.232993        0.831912
C          -1.341996        0.183705        1.053649
H          -0.085854        1.329370        1.835071
C          -0.063274        1.594229        0.137291
H          -0.266019        0.340482       -1.452071
H          -2.153446       -0.736295       -0.267221
16
reaction_000_gen_9_frame_0588
H           0.214204       -2.240406       -1.599807
C           0.335040       -1.240032       -0.907763
H           1.138426       -0.680567       -0.538174
C           0.829271        0.546967        0.121568
H           1.249063       -0.758312        0.436927
H           2.694881        0.947347       -1.241873
H           0.435597       -1.346365        1.345806
C          -0.547036       -1.377159       -1.005212
H          -0.245946        1.808069        0.101721
C          -0.615113        1.887682        1.104058
H          -1.565217       -0.244279        0.854329
C          -1.324071        0.138767        1.045818
H          -0.110822        1.388317        1.871989
C          -0.079842        1.598099        0.155323
H          -0.309209        0.287508       -1.428228
H          -2.099226       -0.715634       -0.316481
16
reaction_000_gen_9_frame_0589
H           0.255998       -2.307312       -1.528030
C           0.370219       -1.288065       -0.904418
H           1.118084       -0.660790       -0.545649
C           0.773162        0.624051        0.033837
H           1.328969       -0.759159        0.422980
H           2.702050        0.992594       -1.227054
H           0.437724       -1.403063        1.388715
C          -0.599275       -1.342164       -1.015902
H          -0.252131        1.801099        0.110244
C          -0.596327        1.813226        1.045727
H          -1.546907       -0.225827        0.864503
C          -1.383337        0.186017        1.069032
H          -0.116246        1.357751        1.861278
C          -0.177329        1.607205        0.111935
H          -0.270255        0.319766       -1.436757
H          -2.044398       -0.715330       -0.250442
16
reaction_000_gen_9_frame_0590
H           0.281294       -2.299617       -1.571915
C           0.393731       -1.162978       -0.833459
H           1.115440       -0.665111       -0.494992
C           0.720905        0.584560        0.005934
H           1.369455       -0.776568        0.434631
H           2.728833        1.032540       -1.205017
H           0.377126       -1.468791        1.321857
C          -0.530307       -1.369817       -1.026130
H          -0.282003        1.785281        0.154645
C          -0.542193        1.823949        1.098697
H          -1.571283       -0.250900        0.899786
C          -1.448049        0.145067        1.018009
H          -0.088134        1.314341        1.868919
C          -0.186706        1.591740        0.041110
H          -0.332021        0.374018       -1.428528
H          -2.006087       -0.657715       -0.283545
16
reaction_000_gen_9_frame_0591
H           0.215034       -2.367995       -1.542368
C           0.413091       -1.218092       -0.895719
H           1.116855       -0.675731       -0.579620
C           0.664165        0.552768        0.045430
H           1.396245       -0.705406        0.464388
H           2.678650        0.979841       -1.165928
H           0.381930       -1.465324        1.379918
C          -0.498499       -1.447241       -0.948706
H          -0.284769        1.836351        0.180207
C          -0.527821        1.882711        1.136290
H          -1.575745       -0.210271        0.924152
C          -1.465586        0.126077        0.919859
H          -0.047273        1.338766        1.838872
C          -0.159044        1.601726       -0.014628
H          -0.290832        0.392112       -1.445974
H          -2.016402       -0.620293       -0.296172
16
reaction_000_gen_9_frame_0592
H           0.157480       -2.416975       -1.587036
C           0.430631       -1.185528       -0.771098
H           1.082630       -0.697522       -0.539800
C           0.667518        0.665523        0.011757
H           1.381786       -0.699298        0.438882
H           2.692995        0.970187       -1.175186
H           0.301016       -1.434744        1.346031
C          -0.487039       -1.443094       -0.951393
H          -0.329750        1.845673        0.160152
C          -0.501324        1.855697        1.203492
H          -1.576124       -0.144779        0.943016
C          -1.435725        0.130536        0.876156
H          -0.010997        1.187695        1.793348
C          -0.026631        1.628432        0.028159
H          -0.294850        0.425720       -1.492680
H          -2.051616       -0.687525       -0.283798
16
reaction_000_gen_9_frame_0593
H           0.176940       -2.436539       -1.566476
C           0.375800       -1.187170       -0.831224
H           1.064895       -0.735430       -0.586953
C           0.641218        0.601749        0.054031
H           1.370909       -0.663731        0.445674
H           2.687603        0.955918       -1.192375
H           0.378344       -1.456261        1.369743
C          -0.498076       -1.406593       -0.868417
H          -0.323227        1.872244        0.068883
C          -0.430860        1.812719        1.203904
H          -1.600241       -0.054619        0.858863
C          -1.429475        0.116018        0.888851
H          -0.044281        1.232203        1.823452
C          -0.054244        1.628658       -0.014126
H          -0.302074        0.485102       -1.451442
H          -2.013232       -0.764267       -0.202387
16
reaction_000_gen_9_frame_0594
H           0.120114       -2.409093       -1.492653
C           0.369357       -1.145613       -0.864853
H           1.070778       -0.692551       -0.584695
C           0.647160        0.608837        0.124257
H           1.355495       -0.717291        0.433472
H           2.650888        1.025757       -1.247720
H           0.414262       -1.444553        1.439979
C          -0.487080       -1.470842       -0.873734
H          -0.252811        1.896022       -0.058373
C          -0.511872        1.795846        1.247559
H          -1.572529       -0.155795        0.888565
C          -1.387573        0.066807        0.899015
H          -0.087160        1.188498        1.795152
C          -0.035816        1.735428       -0.097540
H          -0.231227        0.459199       -1.415636
H          -2.061987       -0.740656       -0.192795
16
reaction_000_gen_9_frame_0595
H           0.204360       -2.410311       -1.508764
C           0.345465       -1.161322       -0.848656
H           0.991699       -0.671674       -0.579794
C           0.686960        0.599232        0.082314
H           1.347238       -0.718203        0.512457
H           2.659277        1.091432       -1.239759
H           0.335200       -1.455032        1.522892
C          -0.447747       -1.462111       -0.907040
H          -0.210167        1.908623       -0.082149
C          -0.548491        1.710253        1.228858
H          -1.566645       -0.155139        0.830746
C          -1.395875        0.062575        0.893900
H          -0.126336        1.130883        1.840305
C          -0.013690        1.738244       -0.106420
H          -0.167095        0.494957       -1.431913
H          -2.094152       -0.702405       -0.206977
16
reaction_000_gen_9_frame_0596
H           0.202822       -2.457174       -1.570922
C           0.384236       -1.132755       -0.817878
H           1.030343       -0.685490       -0.497718
C           0.658025        0.590705        0.075294
H           1.292823       -0.681268        0.486408
H           2.605743        1.082545       -1.307907
H           0.319360       -1.447151        1.478219
C          -0.567749       -1.431944       -0.927270
H          -0.209325        1.880573       -0.124300
C          -0.502226        1.740370        1.356112
H          -1.560153       -0.252197        0.878751
C          -1.327694        0.005088        0.867125
H          -0.166981        1.133855        1.884835
C           0.058969        1.753466       -0.118659
H          -0.142212        0.562220       -1.411921
H          -2.075983       -0.660843       -0.250170
16
reaction_000_gen_9_frame_0597
H           0.206784       -2.407670       -1.523409
C           0.338528       -1.092245       -0.875145
H           1.001641       -0.639469       -0.491830
C           0.577360        0.582528        0.074617
H           1.364231       -0.702600        0.521336
H           2.621594        1.011022       -1.297755
H           0.286357       -1.515698        1.476880
C          -0.564239       -1.438703       -0.945321
H          -0.210670        1.944249       -0.139711
C          -0.526217        1.839790        1.367956
H          -1.558421       -0.297967        0.848893
C          -1.278645       -0.013923        0.900165
H          -0.165051        1.144638        1.856335
C           0.092788        1.751244       -0.131224
H          -0.137380        0.517051       -1.394113
H          -2.048662       -0.682249       -0.247674
16
reaction_000_gen_9_frame_0598
H           0.244458       -2.402596       -1.502925
C           0.302574       -1.148930       -0.871132
H           0.970096       -0.632962       -0.382348
C           0.566374        0.579880        0.057939
H           1.501828       -0.656498        0.476324
H           2.656497        0.948964       -1.267937
H           0.258657       -1.453403        1.378353
C          -0.534201       -1.431244       -0.914670
H          -0.256792        1.893682       -0.177416
C          -0.524303        1.889378        1.372256
H          -1.535794       -0.318163        0.844414
C          -1.261093       -0.058580        0.931424
H          -0.196196        1.188425        1.797647
C           0.034481        1.771011       -0.185847
H          -0.092897        0.542724       -1.412872
H          -2.133688       -0.711689       -0.143209
16
reaction_000_gen_9_frame_0599
H           0.370275       -2.362186       -1.525433
C           0.334692       -1.206151       -0.910166
H           0.985124       -0.602921       -0.397467
C           0.533117        0.602854        0.077575
H           1.501462       -0.698989        0.400466
H           2.699853        0.993343       -1.280323
H           0.167820       -1.471162        1.380652
C          -0.513433       -1.433522       -0.852899
H          -0.314260        1.926466       -0.200141
C          -0.522586        1.902619        1.423084
H          -1.578690       -0.357192        0.849922
C          -1.258008       -0.065126        0.934374
H          -0.217264        1.190370        1.837252
C           0.026149        1.753622       -0.163753
H          -0.043841        0.568372       -1.420080
H          -2.170409       -0.740395       -0.153065
16
reaction_000_gen_9_frame_0600
H           0.347994       -2.376276       -1.542951
C           0.272376       -1.229836       -0.946472
H           1.049326       -0.592070       -0.426710
C           0.533648        0.589355        0.012217
H           1.506870       -0.722460        0.464347
H           2.700870        1.013284       -1.292632
H           0.165878       -1.466479        1.413956
C          -0.437688       -1.523531       -0.704499
H          -0.265249        1.962923       -0.186373
C          -0.653904        1.929420        1.408321
H          -1.602879       -0.372891        0.834857
C          -1.228829       -0.021778        0.866461
H          -0.246124        1.248554        1.808474
C           0.104959        1.790972       -0.188601
H          -0.075515        0.538015       -1.418498
H          -2.171732       -0.767201       -0.101898
16
reaction_000_gen_9_frame_0601
H           0.403074       -2.297474       -1.570722
C           0.273406       -1.193850       -0.843135
H           1.029062       -0.525106       -0.398184
C           0.587814        0.521562       -0.000074
H           1.494949       -0.685357        0.402106
H           2.670587        1.049088       -1.267812
H           0.304220       -1.516306        1.384742
C          -0.504163       -1.626981       -0.686932
H          -0.308038        1.948328       -0.184988
C          -0.712878        1.824698        1.400012
H          -1.687315       -0.372127        0.783459
C          -1.196494       -0.027607        0.828049
H          -0.214727        1.303694        1.778988
C           0.085689        1.803608       -0.160568
H          -0.030426        0.521698       -1.385694
H          -2.194761       -0.727868       -0.079246
16
reaction_000_gen_9_frame_0602
H           0.393061       -2.323352       -1.532241
C           0.273658       -1.230490       -0.923660
H           1.047006       -0.500715       -0.412735
C           0.612896        0.522431        0.012436
H           1.545215       -0.644288        0.376896
H           2.657314        1.000968       -1.235390
H           0.295802       -1.506376        1.364501
C          -0.513143       -1.549431       -0.688204
H          -0.384762        1.897363       -0.247174
C          -0.715931        1.833730        1.305165
H          -1.658957       -0.416649        0.807425
C          -1.225798       -0.025958        0.867285
H          -0.253411        1.329784        1.795190
C           0.125523        1.794440       -0.095474
H           0.014485        0.525851       -1.307949
H          -2.212958       -0.707307       -0.086073
16
reaction_000_gen_9_frame_0603
H           0.428311       -2.331790       -1.546098
C           0.312109       -1.222092       -0.936452
H           1.014872       -0.559337       -0.444291
C           0.589211        0.530608        0.061291
H           1.521224       -0.630544        0.306765
H           2.665184        0.957332       -1.186250
H           0.271253       -1.494993        1.328765
C          -0.604291       -1.592998       -0.660792
H          -0.399956        1.905050       -0.271179
C          -0.640690        1.799927        1.321253
H          -1.647116       -0.347365        0.823792
C          -1.137309       -0.011467        0.840837
H          -0.264266        1.246724        1.822989
C           0.058826        1.848480       -0.129196
H          -0.008503        0.572698       -1.251322
H          -2.158859       -0.670232       -0.080111
16
reaction_000_gen_9_frame_0604
H           0.433281       -2.377113       -1.505111
C           0.307771       -1.199967       -0.911253
H           1.041157       -0.615767       -0.388122
C           0.578409        0.558397        0.008721
H           1.520244       -0.670479        0.392345
H           2.628442        0.956987       -1.190927
H           0.262388       -1.476141        1.343686
C          -0.633645       -1.595316       -0.692602
H          -0.422860        1.909317       -0.258054
C          -0.705967        1.850275        1.249544
H          -1.639766       -0.335078        0.804616
C          -1.083663       -0.022973        0.845087
H          -0.218920        1.239805        1.770729
C           0.054442        1.807138       -0.108010
H           0.025523        0.586483       -1.267024
H          -2.146836       -0.615566       -0.093624
16
reaction_000_gen_9_frame_0605
H           0.491837       -2.354451       -1.499838
C           0.350148       -1.111346       -0.946098
H           1.106804       -0.587548       -0.390888
C           0.597274        0.580883       -0.079677
H           1.487175       -0.664375        0.382409
H           2.621580        0.900286       -1.261017
H           0.241419       -1.473235        1.351886
C          -0.701583       -1.617359       -0.742592
H          -0.426802        1.944396       -0.187316
C          -0.655803        1.899392        1.233294
H          -1.691293       -0.321823        0.862420
C          -1.108352       -0.066932        0.859537
H          -0.230688        1.247103        1.795499
C           0.004787        1.735462       -0.100328
H           0.061735        0.529678       -1.207351
H          -2.148239       -0.640132       -0.069941
16
reaction_000_gen_9_frame_0606
H           0.511618       -2.314782       -1.462998
C           0.385174       -1.122524       -0.910853
H           1.103635       -0.598583       -0.377786
C           0.564568        0.602561       -0.060146
H           1.443750       -0.672771        0.328053
H           2.616145        0.857741       -1.250719
H           0.259832       -1.453413        1.357338
C          -0.681703       -1.655731       -0.697648
H          -0.521904        1.969907       -0.240763
C          -0.653915        1.877494        1.254523
H          -1.697126       -0.333243        0.831702
C          -1.038249       -0.086295        0.830822
H          -0.255818        1.266339        1.904461
C           0.061788        1.703325       -0.115745
H           0.016413        0.563093       -1.251377
H          -2.114208       -0.603116       -0.138863
16
reaction_000_gen_9_frame_0607
H           0.495408       -2.319942       -1.450695
C           0.348200       -1.112941       -0.903510
H           1.124925       -0.656492       -0.366061
C           0.530702        0.499747       -0.020653
H           1.352641       -0.710358        0.353499
H           2.677997        0.873494       -1.263000
H           0.238156       -1.440062        1.347448
C          -0.702165       -1.618395       -0.690464
H          -0.514616        1.985785       -0.222036
C          -0.601526        1.890604        1.305204
H          -1.634686       -0.350455        0.813035
C          -1.030716       -0.105272        0.825174
H          -0.210098        1.241839        1.824727
C           0.043224        1.766406       -0.176873
H           0.031586        0.651628       -1.283865
H          -2.149034       -0.595585       -0.091931
16
reaction_000_gen_9_frame_0608
H           0.584093       -2.324997       -1.506851
C           0.341446       -1.100148       -0.902876
H           1.091308       -0.603996       -0.321635
C           0.551365        0.575195        0.042710
H           1.280682       -0.614389        0.327716
H           2.623051        0.875491       -1.311568
H           0.202531       -1.479326        1.283882
C          -0.664073       -1.612966       -0.672093
H          -0.504285        1.934470       -0.235535
C          -0.624028        1.907540        1.337694
H          -1.648345       -0.409973        0.772296
C          -1.110382       -0.095129        0.877256
H          -0.133399        1.225130        1.794610
C           0.074081        1.765035       -0.132929
H           0.081633        0.598866       -1.286546
H          -2.145677       -0.640802       -0.066130
16
reaction_000_gen_9_frame_0609
H           0.570761       -2.337209       -1.438119
C           0.362864       -1.177310       -0.868336
H           1.076993       -0.569119       -0.340193
C           0.510729        0.602240        0.058519
H           1.274284       -0.617743        0.331446
H           2.621074        0.845331       -1.270463
H           0.130686       -1.433174        1.324069
C          -0.683106       -1.544019       -0.674310
H          -0.475411        1.932664       -0.294209
C          -0.643457        1.892567        1.257593
H          -1.690786       -0.443861        0.771613
C          -1.063679       -0.005799        0.856794
H          -0.112655        1.228003        1.779902
C           0.069663        1.752877       -0.110864
H           0.172546        0.595554       -1.350362
H          -2.120505       -0.721004       -0.033081
16
reaction_000_gen_9_frame_0610
H           0.498324       -2.338066       -1.536979
C           0.437316       -1.207944       -0.879920
H           1.097989       -0.595883       -0.329950
C           0.568447        0.638153        0.086037
H           1.213792       -0.574786        0.383367
H           2.594383        0.830367       -1.280592
H           0.155579       -1.406508        1.338165
C          -0.665878       -1.596179       -0.689054
H          -0.478281        1.915967       -0.402145
C          -0.671954        1.877389        1.272962
H          -1.674265       -0.472296        0.771773
C          -1.007170       -0.007479        0.952757
H          -0.101658        1.204029        1.803270
C           0.072511        1.744026       -0.092620
H           0.145814        0.645819       -1.348899
H          -2.184949       -0.656610       -0.048172
16
reaction_000_gen_9_frame_0611
H           0.480012       -2.388789       -1.514477
C           0.489087       -1.227773       -0.889176
H           1.054349       -0.639452       -0.341191
C           0.559772        0.682098        0.049957
H           1.205550       -0.587531        0.425275
H           2.538004        0.856059       -1.271734
H           0.157460       -1.421323        1.362126
C          -0.684686       -1.575719       -0.759518
H          -0.476485        1.988050       -0.424364
C          -0.664565        1.871239        1.273723
H          -1.643497       -0.534547        0.731000
C          -0.952356       -0.074128        0.963785
H          -0.115860        1.271422        1.802159
C           0.134613        1.833634       -0.139002
H           0.135173        0.587981       -1.313879
H          -2.216572       -0.641222        0.045317
16
reaction_000_gen_9_frame_0612
H           0.563601       -2.372945       -1.491748
C           0.543670       -1.174933       -0.944164
H           0.974539       -0.642774       -0.285544
C           0.514507        0.640098        0.095148
H           1.261064       -0.620851        0.345648
H           2.570548        0.858471       -1.246671
H           0.176078       -1.414101        1.272779
C          -0.692059       -1.590469       -0.729426
H          -0.484730        1.966970       -0.464637
C          -0.688334        1.844310        1.291406
H          -1.639177       -0.581308        0.767742
C          -0.964742       -0.005016        0.947476
H          -0.125075        1.415531        1.782349
C           0.097360        1.842830       -0.094306
H           0.098192        0.595799       -1.287147
H          -2.205442       -0.761610        0.041096
16
reaction_000_gen_9_frame_0613
H           0.602279       -2.381152       -1.462707
C           0.584889       -1.131585       -0.925410
H           0.929225       -0.684262       -0.229557
C           0.603902        0.666126        0.026152
H           1.243237       -0.669496        0.357707
H           2.568512        0.818422       -1.292076
H           0.194818       -1.444115        1.295963
C          -0.740845       -1.547516       -0.729395
H          -0.503708        1.991649       -0.485964
C          -0.768897        1.818411        1.254115
H          -1.716353       -0.607755        0.818575
C          -0.932818        0.028428        1.022370
H          -0.120146        1.465777        1.755814
C           0.113377        1.841843       -0.165515
H           0.091760        0.544997       -1.334442
H          -2.149232       -0.709773        0.094371
16
reaction_000_gen_9_frame_0614
H           0.607130       -2.328747       -1.434881
C           0.587767       -1.065024       -0.950988
H           0.900970       -0.692827       -0.234207
C           0.665059        0.592655        0.051305
H           1.226049       -0.682939        0.383905
H           2.559289        0.812769       -1.362473
H           0.157443       -1.492114        1.317703
C          -0.707441       -1.526799       -0.682039
H          -0.459848        2.002065       -0.537796
C          -0.815570        1.794586        1.215384
H          -1.715634       -0.594577        0.831494
C          -0.915760        0.027719        1.108625
H          -0.128890        1.485017        1.729763
C           0.122063        1.894746       -0.201237
H           0.121294        0.526589       -1.322934
H          -2.203923       -0.753118        0.088375
16
reaction_000_gen_9_frame_0615
H           0.622778       -2.316825       -1.431569
C           0.626709       -0.986733       -0.897768
H           0.805495       -0.753908       -0.215828
C           0.624228        0.582784        0.044917
H           1.220760       -0.736264        0.437294
H           2.603380        0.883551       -1.348789
H           0.131073       -1.505652        1.218357
C          -0.744171       -1.493402       -0.713588
H          -0.382427        2.106048       -0.487746
C          -0.816375        1.711384        1.269204
H          -1.694096       -0.637416        0.809917
C          -0.925637        0.069120        1.109781
H          -0.126934        1.490039        1.669287
C           0.163771        1.813854       -0.202091
H           0.113935        0.574363       -1.304334
H          -2.222491       -0.800942        0.042956
16
reaction_000_gen_9_frame_0616
H           0.611852       -2.282446       -1.349121
C           0.676573       -0.995169       -1.001536
H           0.802066       -0.806709       -0.249501
C           0.595196        0.541354        0.093961
H           1.275775       -0.742902        0.393225
H           2.593091        0.904388       -1.401546
H           0.065930       -1.474799        1.187077
C          -0.700959       -1.500623       -0.813465
H          -0.368306        2.103164       -0.370757
C          -0.832775        1.679500        1.283097
H          -1.689932       -0.614909        0.815608
C          -0.919644        0.071280        1.106840
H          -0.149840        1.415538        1.687838
C           0.185561        1.893973       -0.084164
H           0.121479        0.624603       -1.311681
H          -2.266068       -0.816243        0.014125
16
reaction_000_gen_9_frame_0617
H           0.608118       -2.294023       -1.355399
C           0.682734       -1.032534       -1.006735
H           0.818534       -0.859114       -0.261782
C           0.597474        0.522593        0.042913
H           1.265822       -0.758430        0.359174
H           2.525723        0.920630       -1.398280
H           0.102855       -1.492859        1.161850
C          -0.692992       -1.507872       -0.807410
H          -0.366508        2.101006       -0.321127
C          -0.859669        1.705955        1.321293
H          -1.602828       -0.631898        0.816799
C          -0.866769        0.010535        1.143276
H          -0.166437        1.481522        1.695622
C           0.100334        1.946206       -0.021380
H           0.098049        0.690630       -1.313088
H          -2.244440       -0.802348       -0.055726
16
reaction_000_gen_9_frame_0618
H           0.654485       -2.283716       -1.356300
C           0.688426       -1.041519       -1.041855
H           0.832528       -0.828955       -0.268483
C           0.566463        0.519804        0.076571
H           1.272585       -0.763861        0.386536
H           2.475040        0.940105       -1.373111
H           0.008780       -1.409138        1.136052
C          -0.650279       -1.513229       -0.766962
H          -0.386665        2.059647       -0.379105
C          -0.823920        1.721822        1.294984
H          -1.615145       -0.657755        0.799472
C          -0.873714       -0.019190        1.201977
H          -0.161597        1.491198        1.707695
C           0.067802        1.911706       -0.027951
H           0.154592        0.665196       -1.353630
H          -2.209383       -0.792112       -0.035888
16
reaction_000_gen_9_frame_0619
H           0.650620       -2.299471       -1.384102
C           0.699030       -1.102924       -1.077821
H           0.885821       -0.839231       -0.220953
C           0.547595        0.491574        0.148594
H           1.313259       -0.697954        0.375188
H           2.483103        0.974307       -1.285713
H          -0.009710       -1.394722        1.113061
C          -0.658837       -1.436623       -0.719444
H          -0.403924        2.029067       -0.436954
C          -0.797264        1.736286        1.279142
H          -1.638324       -0.605600        0.742112
C          -0.857747       -0.013444        1.150858
H          -0.240653        1.461630        1.701092
C           0.138626        1.874332        0.004218
H           0.145360        0.591937       -1.344086
H          -2.256954       -0.769162       -0.045194
16
reaction_000_gen_9_frame_0620
H           0.589551       -2.271489       -1.425436
C           0.702886       -1.066105       -1.066865
H           0.903750       -0.920177       -0.243452
C           0.550207        0.560053        0.121452
H           1.402715       -0.730765        0.390147
H           2.381924        0.978663       -1.318893
H           0.025222       -1.404476        1.166377
C          -0.660684       -1.411496       -0.692460
H          -0.465490        2.004982       -0.387646
C          -0.819957        1.666845        1.321870
H          -1.569427       -0.640803        0.809376
C          -0.874606        0.018411        1.116873
H          -0.308563        1.510850        1.662249
C           0.177014        1.866110       -0.054563
H           0.140460        0.633974       -1.328610
H          -2.175003       -0.794577       -0.070419
16
reaction_000_gen_9_frame_0621
H           0.580386       -2.270607       -1.389118
C           0.636373       -1.029789       -1.052631
H           0.857532       -0.931387       -0.219144
C           0.539834        0.614356        0.134275
H           1.430524       -0.740007        0.400068
H           2.363249        0.903175       -1.294562
H           0.057082       -1.495168        1.066420
C          -0.695210       -1.389008       -0.666059
H          -0.366352        1.951794       -0.385659
C          -0.799084        1.670763        1.335003
H          -1.642771       -0.670979        0.776598
C          -0.925039        0.047270        1.071665
H          -0.317425        1.461145        1.734128
C           0.257722        1.929346       -0.113949
H           0.166931        0.672879       -1.327574
H          -2.143752       -0.723785       -0.069462
16
reaction_000_gen_9_frame_0622
H           0.625993       -2.235142       -1.428323
C           0.572490       -0.972648       -1.029776
H           0.872639       -0.949482       -0.147693
C           0.549897        0.600513        0.146021
H           1.467211       -0.763321        0.453808
H           2.395626        0.909543       -1.369861
H           0.013264       -1.507087        1.104589
C          -0.710817       -1.387752       -0.701566
H          -0.406524        1.975734       -0.432069
C          -0.792598        1.724723        1.325424
H          -1.712739       -0.685087        0.851582
C          -0.881394        0.013785        1.051872
H          -0.234124        1.426564        1.712613
C           0.234658        1.966490       -0.100192
H           0.129415        0.677447       -1.355696
H          -2.122997       -0.794281       -0.080733
16
reaction_000_gen_9_frame_0623
H           0.679798       -2.301735       -1.352802
C           0.527616       -0.933465       -1.107938
H           0.833678       -0.882906       -0.166326
C           0.468293        0.642740        0.154146
H           1.381946       -0.742499        0.376052
H           2.491145        0.878501       -1.342324
H           0.049030       -1.577145        1.104150
C          -0.660069       -1.361801       -0.626295
H          -0.444283        1.998267       -0.441917
C          -0.739965        1.775006        1.364615
H          -1.752667       -0.691026        0.866675
C          -0.898056        0.019587        1.065603
H          -0.224900        1.402909        1.672379
C           0.234641        1.961721       -0.092471
H           0.205924        0.648884       -1.375582
H          -2.152131       -0.837040       -0.097965
16
reaction_000_gen_9_frame_0624
H           0.700354       -2.364460       -1.411269
C           0.509495       -0.922443       -1.058272
H           0.816778       -0.939232       -0.125377
C           0.463409        0.673199        0.108874
H           1.356952       -0.752998        0.433532
H           2.495322        0.957355       -1.344880
H           0.028108       -1.608220        1.104011
C          -0.722409       -1.381716       -0.626477
H          -0.393036        1.999934       -0.392160
C          -0.726865        1.823963        1.371928
H          -1.761450       -0.700656        0.878154
C          -0.895592        0.004010        0.989850
H          -0.249959        1.428200        1.680322
C           0.294902        1.960166       -0.148096
H           0.196716        0.593103       -1.371392
H          -2.112727       -0.770206       -0.088750
16
reaction_000_gen_9_frame_0625
H           0.685574       -2.352453       -1.397096
C           0.541311       -0.894355       -1.022022
H           0.841846       -0.857490       -0.126858
C           0.472533        0.629584        0.075610
H           1.343659       -0.759380        0.441761
H           2.527466        0.975433       -1.385231
H          -0.006456       -1.633158        1.150913
C          -0.610138       -1.342655       -0.650978
H          -0.401635        2.060228       -0.353672
C          -0.673412        1.835150        1.376558
H          -1.769541       -0.653615        0.939189
C          -0.922523       -0.043071        1.041397
H          -0.264601        1.347112        1.627962
C           0.218489        1.951364       -0.139301
H           0.127114        0.548860       -1.433221
H          -2.109686       -0.811554       -0.145013
16
reaction_000_gen_9_frame_0626
H           0.670824       -2.285702       -1.432647
C           0.600578       -0.884336       -0.973648
H           0.849703       -0.892477       -0.173777
C           0.541111        0.628789        0.079071
H           1.341829       -0.746705        0.495925
H           2.468957        1.009554       -1.391929
H           0.005953       -1.658381        1.198679
C          -0.708608       -1.305493       -0.695338
H          -0.426497        2.004322       -0.435692
C          -0.642091        1.915765        1.387945
H          -1.735291       -0.669938        0.977471
C          -0.888605       -0.090299        1.115963
H          -0.281900        1.334611        1.585746
C           0.240955        1.952726       -0.122546
H           0.079646        0.503901       -1.491568
H          -2.116566       -0.816339       -0.123655
16
reaction_000_gen_9_frame_0627
H           0.655878       -2.331158       -1.387754
C           0.588865       -0.911987       -0.969836
H           0.877347       -0.839299       -0.216968
C           0.509442        0.595527        0.099788
H           1.358750       -0.727981        0.441920
H           2.462037        1.030164       -1.441594
H          -0.014121       -1.656199        1.241543
C          -0.738866       -1.243110       -0.716026
H          -0.401534        1.989494       -0.477803
C          -0.637524        1.995730        1.313995
H          -1.766999       -0.729379        1.053205
C          -0.845410       -0.067320        1.137730
H          -0.207013        1.303243        1.586067
C           0.228405        1.918706       -0.125204
H           0.032158        0.507632       -1.456590
H          -2.101415       -0.834062       -0.082475
16
reaction_000_gen_9_frame_0628
H           0.654205       -2.368448       -1.386410
C           0.547092       -0.851676       -1.013951
H           0.904247       -0.910740       -0.211611
C           0.481209        0.608262        0.047762
H           1.311864       -0.727405        0.465910
H           2.385922        1.083264       -1.454485
H          -0.038919       -1.671748        1.270897
C          -0.673442       -1.301270       -0.735289
H          -0.325018        1.987036       -0.397274
C          -0.640397        1.995240        1.377007
H          -1.682221       -0.771227        1.090067
C          -0.912468        0.024965        1.107970
H          -0.193482        1.286749        1.576813
C           0.261743        1.950505       -0.134028
H           0.001502        0.553594       -1.474500
H          -2.081839       -0.887099       -0.128880
16
reaction_000_gen_9_frame_0629
H           0.687383       -2.360945       -1.371197
C           0.527622       -0.842732       -1.075423
H           0.874334       -0.864519       -0.231617
C           0.521477        0.538629        0.080808
H           1.374093       -0.711856        0.436711
H           2.402472        1.019778       -1.494454
H           0.008779       -1.660740        1.272725
C          -0.687776       -1.300702       -0.704730
H          -0.342139        2.060521       -0.406070
C          -0.726581        1.972907        1.377774
H          -1.710749       -0.683143        1.221750
C          -0.906519       -0.040628        1.088338
H          -0.174570        1.239560        1.596296
C           0.245567        1.917830       -0.149455
H          -0.026530        0.567499       -1.497532
H          -2.066865       -0.851461       -0.143924
16
reaction_000_gen_9_frame_0630
H           0.732152       -2.293143       -1.348750
C           0.582256       -0.840457       -1.121071
H           0.837876       -0.885452       -0.308357
C           0.506878        0.515522        0.066039
H           1.400827       -0.743960        0.434648
H           2.383239        0.997170       -1.381971
H          -0.065875       -1.589541        1.222055
C          -0.740166       -1.291744       -0.665668
H          -0.351174        2.107199       -0.430087
C          -0.727546        1.995281        1.425204
H          -1.770082       -0.745461        1.216660
C          -0.830679       -0.055424        1.063196
H          -0.182186        1.221232        1.638595
C           0.294469        1.942696       -0.167805
H           0.028395        0.560592       -1.487516
H          -2.098385       -0.894512       -0.155173
16
reaction_000_gen_9_frame_0631
H           0.658446       -2.284368       -1.312747
C           0.665206       -0.852160       -1.164096
H           0.876007       -0.843546       -0.402745
C           0.456491        0.485322        0.033848
H           1.411734       -0.825238        0.452049
H           2.356232        0.999817       -1.427583
H          -0.024939       -1.585265        1.271506
C          -0.774811       -1.245247       -0.671150
H          -0.331599        2.101334       -0.434786
C          -0.699119        1.990736        1.469585
H          -1.731952       -0.766651        1.225158
C          -0.823601       -0.018443        1.067437
H          -0.215088        1.263792        1.630346
C           0.303819        1.935225       -0.073310
H          -0.024341        0.577129       -1.443588
H          -2.102485       -0.932435       -0.219924
16
reaction_000_gen_9_frame_0632
H           0.709298       -2.290148       -1.383623
C           0.620930       -0.821491       -1.071929
H           0.848750       -0.856098       -0.361072
C           0.431261        0.566351        0.033134
H           1.412048       -0.807090        0.519515
H           2.348992        0.951172       -1.529700
H          -0.027904       -1.547252        1.281477
C          -0.753121       -1.192228       -0.609066
H          -0.354835        2.098434       -0.522004
C          -0.684236        2.000153        1.414042
H          -1.726434       -0.840954        1.274308
C          -0.808274       -0.022835        1.018938
H          -0.237637        1.209082        1.689864
C           0.262694        1.962243       -0.092447
H          -0.047021        0.544975       -1.415535
H          -1.994510       -0.954313       -0.245901
16
reaction_000_gen_9_frame_0633
H           0.700669       -2.250890       -1.431235
C           0.598039       -0.821502       -1.036577
H           0.789644       -0.889476       -0.455895
C           0.418408        0.610628        0.031092
H           1.406259       -0.789445        0.536301
H           2.354634        0.952435       -1.479379
H          -0.041059       -1.614206        1.324588
C          -0.738273       -1.188624       -0.578363
H          -0.340424        2.137969       -0.526688
C          -0.670705        1.963380        1.385322
H          -1.755717       -0.833367        1.283620
C          -0.761620        0.077102        0.997612
H          -0.210723        1.156776        1.722352
C           0.327773        2.004213       -0.053313
H          -0.119577        0.514426       -1.479434
H          -1.957328       -1.029420       -0.240003
16
reaction_000_gen_9_frame_0634
H           0.639108       -2.224126       -1.438652
C           0.619303       -0.921587       -1.119630
H           0.743228       -0.877222       -0.466454
C           0.426697        0.632481        0.018265
H           1.448073       -0.760425        0.502223
H           2.344237        1.011726       -1.448817
H          -0.057572       -1.653648        1.295766
C          -0.739599       -1.183399       -0.559142
H          -0.307908        2.110433       -0.494574
C          -0.621283        1.911116        1.438731
H          -1.773053       -0.776512        1.331533
C          -0.758223       -0.045080        1.023874
H          -0.212040        1.192513        1.702403
C           0.256003        2.085146       -0.003971
H          -0.070860        0.504299       -1.501897
H          -1.936112       -1.005716       -0.279658
16
reaction_000_gen_9_frame_0635
H           0.593718       -2.175353       -1.449255
C           0.635654       -0.955765       -1.142673
H           0.704839       -0.934148       -0.476451
C           0.470894        0.594954       -0.024596
H           1.479153       -0.765037        0.506118
H           2.292197        1.044412       -1.413308
H          -0.051596       -1.684107        1.219922
C          -0.748020       -1.119652       -0.506290
H          -0.316820        2.032770       -0.516413
C          -0.735674        1.912177        1.467656
H          -1.747571       -0.664952        1.352043
C          -0.726547       -0.035980        1.056679
H          -0.222679        1.201002        1.610073
C           0.301452        2.069834       -0.003528
H          -0.013344        0.504840       -1.379289
H          -1.915657       -1.024996       -0.300687
16
reaction_000_gen_9_frame_0636
H           0.547835       -2.152870       -1.486544
C           0.675640       -0.940622       -1.142423
H           0.696150       -0.956329       -0.526962
C           0.419579        0.634203       -0.067027
H           1.431033       -0.740699        0.560244
H           2.326478        1.057112       -1.363948
H           0.007396       -1.684588        1.225921
C          -0.817519       -1.127538       -0.500485
H          -0.333099        2.026008       -0.553798
C          -0.681995        1.887504        1.416823
H          -1.787248       -0.680685        1.445742
C          -0.739252       -0.008586        1.013886
H          -0.221156        1.161194        1.596045
C           0.388663        2.115571       -0.006007
H          -0.010052        0.499558       -1.358681
H          -1.902452       -1.089231       -0.252784
16
reaction_000_gen_9_frame_0637
H           0.462355       -2.126204       -1.492198
C           0.684836       -0.910771       -1.142858
H           0.658751       -0.926281       -0.506053
C           0.513511        0.591170       -0.052459
H           1.395788       -0.698411        0.623419
H           2.347787        1.107867       -1.396053
H          -0.069693       -1.671569        1.222351
C          -0.811456       -1.164584       -0.538693
H          -0.312176        2.019974       -0.572838
C          -0.619087        1.910831        1.368913
H          -1.806246       -0.728704        1.465980
C          -0.705029       -0.002488        1.005268
H          -0.248652        1.155188        1.657537
C           0.343604        2.102484       -0.012562
H           0.026887        0.518850       -1.354662
H          -1.861181       -1.177353       -0.275091
16
reaction_000_gen_9_frame_0638
H           0.536890       -2.070552       -1.463405
C           0.650256       -0.979655       -1.115930
H           0.601175       -0.965437       -0.517305
C           0.507706        0.636731       -0.032346
H           1.436419       -0.681012        0.517657
H           2.353330        1.097969       -1.432170
H          -0.051967       -1.714925        1.188157
C          -0.801388       -1.144607       -0.498439
H          -0.321467        1.996514       -0.584705
C          -0.610662        1.941835        1.385458
H          -1.816712       -0.691836        1.454705
C          -0.739716        0.062268        1.016732
H          -0.274490        1.082246        1.659445
C           0.371868        2.113158       -0.048975
H           0.021303        0.481344       -1.315720
H          -1.862545       -1.164041       -0.213157
16
reaction_000_gen_9_frame_0639
H           0.493711       -2.065084       -1.448843
C           0.657345       -0.996516       -1.136310
H           0.642006       -0.985705       -0.515694
C           0.481726        0.659657       -0.069082
H           1.428450       -0.669540        0.526983
H           2.341949        1.205067       -1.410223
H          -0.044968       -1.728553        1.198987
C          -0.759024       -1.156986       -0.496711
H          -0.300288        1.983372       -0.610057
C          -0.636658        2.004911        1.353477
H          -1.800557       -0.733261        1.469790
C          -0.785806        0.011421        1.061113
H          -0.277524        1.084588        1.615265
C           0.380981        2.116871       -0.019762
H           0.047765        0.484357       -1.300133
H          -1.869106       -1.214599       -0.218802
16
reaction_000_gen_9_frame_0640
H           0.545008       -2.043022       -1.458252
C           0.737585       -1.013255       -1.184735
H           0.675552       -0.992844       -0.475887
C           0.494277        0.718294       -0.148661
H           1.389427       -0.638843        0.505678
H           2.373271        1.209584       -1.364687
H          -0.091298       -1.740580        1.239558
C          -0.734967       -1.189176       -0.484487
H          -0.310080        2.009060       -0.650708
C          -0.688268        2.014185        1.336935
H          -1.754875       -0.801950        1.435816
C          -0.853795        0.030330        1.113632
H          -0.253261        1.071287        1.584278
C           0.350752        2.165150        0.013308
H           0.031011        0.411580       -1.232481
H          -1.910339       -1.209801       -0.229308
16
reaction_000_gen_9_frame_0641
H           0.519143       -1.975685       -1.485996
C           0.724545       -1.029307       -1.178983
H           0.647334       -0.934070       -0.458397
C           0.472634        0.669169       -0.242530
H           1.477695       -0.641124        0.544341
H           2.394487        1.213773       -1.335664
H          -0.131611       -1.785437        1.284395
C          -0.694784       -1.192568       -0.511216
H          -0.295981        2.036510       -0.659716
C          -0.719466        2.000894        1.318680
H          -1.746552       -0.862634        1.389700
C          -0.846999        0.069017        1.135876
H          -0.243144        1.068310        1.642470
C           0.330404        2.216509        0.076200
H          -0.014932        0.411520       -1.211734
H          -1.872772       -1.264877       -0.307426
16
reaction_000_gen_9_frame_0642
H           0.505451       -1.899651       -1.482944
C           0.704985       -1.074994       -1.197221
H           0.604078       -0.931918       -0.482816
C           0.512747        0.712746       -0.239056
H           1.514636       -0.652798        0.573836
H           2.346059        1.221823       -1.290502
H          -0.139992       -1.758748        1.271012
C          -0.733512       -1.205869       -0.535172
H          -0.304928        2.009531       -0.681448
C          -0.730915        1.987475        1.378325
H          -1.747556       -0.852206        1.343907
C          -0.922383        0.041262        1.170170
H          -0.232569        1.089983        1.638252
C           0.436320        2.196708        0.057804
H           0.018738        0.425415       -1.207281
H          -1.831157       -1.308758       -0.316865
16
reaction_000_gen_9_frame_0643
H           0.499722       -1.910236       -1.493757
C           0.659051       -1.053725       -1.199367
H           0.604247       -0.966143       -0.508789
C           0.495006        0.750534       -0.165034
H           1.540590       -0.704654        0.527096
H           2.308023        1.262500       -1.253641
H          -0.147496       -1.743000        1.243637
C          -0.689270       -1.235714       -0.574891
H          -0.336016        2.027116       -0.668365
C          -0.686101        1.968820        1.361595
H          -1.764074       -0.828842        1.351686
C          -0.909468       -0.002833        1.201914
H          -0.290576        1.119943        1.691294
C           0.502070        2.237272        0.013988
H           0.047734        0.425024       -1.235659
H          -1.833442       -1.346061       -0.291707
16
reaction_000_gen_9_frame_0644
H           0.505450       -1.861111       -1.476811
C           0.587863       -1.118678       -1.219331
H           0.639853       -0.984779       -0.407904
C           0.448536        0.710029       -0.209336
H           1.531736       -0.676053        0.527008
H           2.308374        1.296475       -1.228553
H          -0.133422       -1.718664        1.225275
C          -0.682425       -1.202069       -0.601880
H          -0.287155        2.074190       -0.592346
C          -0.734497        1.955384        1.350522
H          -1.760206       -0.829198        1.348268
C          -0.932679       -0.002072        1.239350
H          -0.288033        1.119146        1.729548
C           0.509820        2.234636        0.031672
H           0.094033        0.440708       -1.383975
H          -1.807250       -1.437944       -0.331505
16
reaction_000_gen_9_frame_0645
H           0.527959       -1.838286       -1.471441
C           0.612980       -1.127152       -1.255490
H           0.615024       -1.035829       -0.365842
C           0.399430        0.753517       -0.348990
H           1.516726       -0.608763        0.487508
H           2.258126        1.293220       -1.222093
H          -0.058361       -1.701145        1.265010
C          -0.690860       -1.122735       -0.625339
H          -0.279018        2.051035       -0.579196
C          -0.709387        1.916724        1.389585
H          -1.791358       -0.820510        1.304356
C          -0.958211       -0.004072        1.299326
H          -0.254391        1.099454        1.757890
C           0.549638        2.183293        0.065381
H           0.091477        0.417619       -1.390642
H          -1.829774       -1.456370       -0.310023
16
reaction_000_gen_9_frame_0646
H           0.569360       -1.794968       -1.482226
C           0.543571       -1.116950       -1.222002
H           0.600770       -1.001860       -0.351161
C           0.382793        0.696616       -0.363637
H           1.476046       -0.647085        0.502488
H           2.220747        1.240119       -1.197748
H          -0.066110       -1.676200        1.224482
C          -0.704201       -1.100990       -0.562990
H          -0.250953        2.083569       -0.630429
C          -0.634241        1.946423        1.381446
H          -1.800245       -0.826955        1.361765
C          -0.958001       -0.021690        1.299899
H          -0.219957        1.104417        1.753832
C           0.508457        2.164836        0.044950
H           0.067020        0.440417       -1.416722
H          -1.735058       -1.489700       -0.341950
16
reaction_000_gen_9_frame_0647
H           0.583770       -1.799797       -1.487533
C           0.571264       -1.126161       -1.218125
H           0.530576       -0.985081       -0.352119
C           0.429871        0.692641       -0.398862
H           1.492306       -0.611702        0.502754
H           2.194297        1.278454       -1.187045
H          -0.080518       -1.680679        1.324278
C          -0.730304       -1.126677       -0.560758
H          -0.290371        2.112017       -0.654563
C          -0.620760        1.908385        1.354333
H          -1.739170       -0.783454        1.370611
C          -1.004299       -0.068150        1.268910
H          -0.151220        1.122659        1.705598
C           0.525942        2.115024        0.085865
H           0.039885        0.447187       -1.402534
H          -1.751268       -1.494667       -0.350810
16
reaction_000_gen_9_frame_0648
H           0.580943       -1.787332       -1.497434
C           0.583217       -1.100485       -1.196767
H           0.523341       -0.918481       -0.347510
C           0.420899        0.650028       -0.432420
H           1.531640       -0.635155        0.528317
H           2.202752        1.288703       -1.173177
H          -0.099879       -1.704246        1.316991
C          -0.766770       -1.114039       -0.499195
H          -0.285652        2.063134       -0.609753
C          -0.635001        1.917296        1.322065
H          -1.729423       -0.764359        1.407429
C          -1.028774       -0.093144        1.223650
H          -0.219614        1.084646        1.702311
C           0.622943        2.156101        0.030212
H           0.050994        0.483647       -1.445875
H          -1.751616       -1.526316       -0.328844
16
reaction_000_gen_9_frame_0649
H           0.595980       -1.722244       -1.528433
C           0.638864       -1.080333       -1.192462
H           0.561076       -0.857239       -0.350098
C           0.423170        0.651189       -0.364137
H           1.547336       -0.621618        0.499645
H           2.161222        1.204675       -1.162601
H          -0.114742       -1.746446        1.279390
C          -0.767927       -1.134715       -0.498953
H          -0.244179        2.054292       -0.604348
C          -0.620586        1.983523        1.375122
H          -1.822704       -0.766012        1.445846
C          -1.079430       -0.124250        1.119862
H          -0.202303        1.112871        1.684046
C           0.637687        2.107641        0.132485
H           0.045118        0.506167       -1.482795
H          -1.758582       -1.567502       -0.352570
16
reaction_000_gen_9_frame_0650
H           0.559741       -1.720230       -1.563810
C           0.533615       -1.117172       -1.150759
H           0.509308       -0.882931       -0.386332
C           0.482091        0.698429       -0.349062
H           1.610211       -0.605858        0.550255
H           2.131978        1.177100       -1.041274
H          -0.221068       -1.786966        1.310244
C          -0.729906       -1.057780       -0.459428
H          -0.178614        2.041033       -0.623456
C          -0.636689        1.945256        1.284886
H          -1.834872       -0.714010        1.412217
C          -1.084561       -0.138577        1.022854
H          -0.191705        1.131552        1.680571
C           0.716793        2.075065        0.139492
H           0.053658        0.481785       -1.484546
H          -1.719979       -1.526695       -0.341852
16
reaction_000_gen_9_frame_0651
H           0.584781       -1.688277       -1.530939
C           0.498136       -1.117096       -1.128065
H           0.496757       -0.896441       -0.421287
C           0.436502        0.624376       -0.402135
H           1.603396       -0.522771        0.519826
H           2.151019        1.185504       -1.041249
H          -0.270004       -1.769342        1.293633
C          -0.681205       -1.009189       -0.449176
H          -0.136734        2.010043       -0.629803
C          -0.645598        1.847631        1.237681
H          -1.775057       -0.688686        1.419971
C          -1.161940       -0.213241        1.065911
H          -0.171421        1.159961        1.670424
C           0.685748        2.114000        0.155487
H           0.037662        0.488681       -1.497007
H          -1.652042       -1.525153       -0.263274
16
reaction_000_gen_9_frame_0652
H           0.524126       -1.682948       -1.488878
C           0.517025       -1.126701       -1.126338
H           0.496783       -0.871271       -0.419820
C           0.466887        0.650150       -0.389127
H           1.548833       -0.578258        0.514811
H           2.143500        1.181881       -0.990388
H          -0.242935       -1.771637        1.283645
C          -0.654511       -1.027348       -0.418821
H          -0.081456        2.060284       -0.634707
C          -0.600976        1.864550        1.237300
H          -1.763899       -0.696413        1.377481
C          -1.155479       -0.238614        0.993676
H          -0.153196        1.178215        1.647039
C           0.613052        2.126961        0.173859
H           0.024882        0.474676       -1.510670
H          -1.682636       -1.543529       -0.249060
16
reaction_000_gen_9_frame_0653
H           0.459492       -1.672852       -1.533432
C           0.518814       -1.116200       -1.088442
H           0.501923       -0.838872       -0.426172
C           0.525836        0.598491       -0.457608
H           1.562760       -0.629625        0.534785
H           2.088202        1.237734       -1.000291
H          -0.251384       -1.784229        1.246425
C          -0.643618       -0.995081       -0.399479
H          -0.019346        2.064262       -0.715122
C          -0.605083        1.869284        1.239601
H          -1.777864       -0.737314        1.464315
C          -1.175977       -0.194207        1.109059
H          -0.194272        1.190838        1.641037
C           0.586184        2.095397        0.150981
H           0.093563        0.501245       -1.500748
H          -1.669230       -1.588868       -0.264909
16
reaction_000_gen_9_frame_0654
H           0.446751       -1.594104       -1.500260
C           0.467980       -1.146115       -1.052803
H           0.454406       -0.812962       -0.383015
C           0.581962        0.508011       -0.467045
H           1.582874       -0.653758        0.542472
H           2.073924        1.241159       -1.045701
H          -0.251601       -1.792907        1.223814
C          -0.631786       -0.922280       -0.390976
H           0.007115        2.061847       -0.735396
C          -0.594530        1.844711        1.240019
H          -1.767444       -0.713731        1.425653
C          -1.196702       -0.183630        1.116753
H          -0.152374        1.233646        1.663267
C           0.579690        2.063371        0.121415
H           0.104580        0.482222       -1.480338
H          -1.704846       -1.615480       -0.277860
16
reaction_000_gen_9_frame_0655
H           0.467095       -1.630258       -1.486526
C           0.457119       -1.170508       -1.051354
H           0.445484       -0.854255       -0.361488
C           0.588505        0.521674       -0.459017
H           1.532205       -0.658555        0.470348
H           2.114314        1.274230       -1.019616
H          -0.276326       -1.895832        1.254485
C          -0.652189       -0.920467       -0.421265
H           0.038319        2.120118       -0.731198
C          -0.606188        1.842736        1.147579
H          -1.775534       -0.677616        1.431929
C          -1.187471       -0.168044        1.099360
H          -0.100501        1.253988        1.691452
C           0.599387        2.100040        0.166185
H           0.114112        0.452854       -1.450486
H          -1.758333       -1.590105       -0.280388
16
reaction_000_gen_9_frame_0656
H           0.495515       -1.626077       -1.503435
C           0.449175       -1.143372       -1.052488
H           0.483687       -0.928687       -0.406247
C           0.635818        0.508316       -0.384011
H           1.559012       -0.677535        0.513769
H           2.088134        1.208263       -1.095817
H          -0.290335       -1.843093        1.243325
C          -0.602551       -0.949630       -0.396634
H           0.024035        2.153695       -0.743471
C          -0.607023        1.820198        1.157565
H          -1.788528       -0.695498        1.441612
C          -1.183190       -0.183978        1.108138
H          -0.131991        1.328622        1.673672
C           0.528040        2.084367        0.162034
H           0.076623        0.476981       -1.437695
H          -1.736421       -1.532572       -0.280318
16
reaction_000_gen_9_frame_0657
H           0.461502       -1.629643       -1.429996
C           0.480309       -1.254793       -1.067150
H           0.483739       -1.007791       -0.418372
C           0.656193        0.442887       -0.368145
H           1.579222       -0.631031        0.498699
H           2.022532        1.177245       -1.101618
H          -0.373945       -1.825577        1.287290
C          -0.573474       -0.936680       -0.392259
H          -0.005587        2.213542       -0.771184
C          -0.603377        1.781027        1.179107
H          -1.775856       -0.678923        1.411170
C          -1.203881       -0.131070        1.077855
H          -0.146593        1.423628        1.660879
C           0.599389        2.065733        0.115953
H           0.104740        0.459836       -1.443256
H          -1.704916       -1.468390       -0.238975
16
reaction_000_gen_9_frame_0658
H           0.505597       -1.630490       -1.457687
C           0.495587       -1.284345       -1.066757
H           0.496079       -0.990082       -0.412365
C           0.660306        0.396133       -0.482757
H           1.546775       -0.649167        0.468719
H           2.031633        1.164859       -1.087428
H          -0.389776       -1.805769        1.320802
C          -0.546048       -0.938095       -0.404973
H          -0.005421        2.242679       -0.778018
C          -0.610067        1.810350        1.225784
H          -1.738730       -0.694653        1.377704
C          -1.202371       -0.110611        1.054799
H          -0.136482        1.420381        1.706206
C           0.592651        2.099244        0.131116
H           0.026572        0.452643       -1.427715
H          -1.726303       -1.483079       -0.167429
16
reaction_000_gen_9_frame_0659
H           0.521513       -1.612587       -1.502048
C           0.454206       -1.304390       -1.041216
H           0.542946       -0.978051       -0.454325
C           0.633006        0.387036       -0.423937
H           1.576305       -0.655376        0.474310
H           2.010041        1.204527       -1.053889
H          -0.380142       -1.879789        1.304766
C          -0.485703       -0.974695       -0.439840
H          -0.071701        2.270164       -0.759442
C          -0.628837        1.838723        1.212570
H          -1.687527       -0.664414        1.428947
C          -1.210031       -0.105026        1.029147
H          -0.146447        1.475710        1.640393
C           0.633132        2.046585        0.116445
H          -0.016554        0.397938       -1.359431
H          -1.744207       -1.446354       -0.172450
16
reaction_000_gen_9_frame_0660
H           0.479331       -1.645442       -1.470002
C           0.475936       -1.298448       -1.130950
H           0.582748       -1.043690       -0.483644
C           0.649117        0.377592       -0.426878
H           1.580508       -0.600889        0.469672
H           2.003974        1.150950       -1.092877
H          -0.449978       -1.831457        1.345341
C          -0.527582       -0.967356       -0.402143
H          -0.031358        2.303532       -0.752218
C          -0.584676        1.862814        1.196693
H          -1.710435       -0.697495        1.437479
C          -1.257748       -0.006098        1.053494
H          -0.160992        1.439740        1.676308
C           0.670114        1.996645        0.105278
H           0.048411        0.406722       -1.378868
H          -1.767372       -1.447119       -0.146686
16
reaction_000_gen_9_frame_0661
H           0.447680       -1.624087       -1.420172
C           0.492391       -1.314627       -1.170780
H           0.629528       -1.009924       -0.487483
C           0.646593        0.441543       -0.436499
H           1.554383       -0.623120        0.488628
H           2.031892        1.106589       -1.103209
H          -0.487744       -1.849072        1.322408
C          -0.521011       -0.986056       -0.348807
H          -0.044189        2.279685       -0.651498
C          -0.630080        1.917502        1.179041
H          -1.671692       -0.670101        1.461856
C          -1.281970       -0.020855        1.004874
H          -0.128216        1.426109        1.724982
C           0.690350        1.984963        0.032998
H           0.049962        0.438107       -1.431934
H          -1.777879       -1.496657       -0.164406
16
reaction_000_gen_9_frame_0662
H           0.479014       -1.603430       -1.436597
C           0.459048       -1.250831       -1.212893
H           0.649728       -1.035776       -0.447712
C           0.693714        0.430914       -0.481235
H           1.599620       -0.641013        0.508865
H           2.004027        1.045096       -1.116616
H          -0.459852       -1.831509        1.336140
C          -0.559988       -0.963212       -0.423143
H          -0.076046        2.295372       -0.614358
C          -0.626402        1.900736        1.270737
H          -1.737892       -0.678615        1.496164
C          -1.237084       -0.058724        1.020219
H          -0.127141        1.468766        1.720422
C           0.697406        1.972527        0.008408
H           0.045216        0.473583       -1.476442
H          -1.803368       -1.523885       -0.151959
16
reaction_000_gen_9_frame_0663
H           0.473502       -1.668321       -1.495640
C           0.482400       -1.223070       -1.206114
H           0.686553       -1.044186       -0.422657
C           0.623920        0.413369       -0.448206
H           1.635360       -0.639478        0.489755
H           1.967924        1.046855       -1.128241
H          -0.446821       -1.795726        1.338899
C          -0.558859       -0.925493       -0.354124
H           0.019162        2.347327       -0.607514
C          -0.605777        1.925108        1.314987
H          -1.754686       -0.671964        1.461692
C          -1.297303       -0.110908        1.008206
H          -0.124205        1.390514        1.634604
C           0.710103        1.988745        0.063680
H          -0.029018        0.465271       -1.459358
H          -1.782254       -1.498043       -0.189968
16
reaction_000_gen_9_frame_0664
H           0.410661       -1.617012       -1.487792
C           0.433906       -1.249198       -1.178134
H           0.734187       -1.123232       -0.423514
C           0.598073        0.477689       -0.435420
H           1.634446       -0.695799        0.415290
H           1.983516        1.076323       -1.139727
H          -0.447766       -1.810734        1.306087
C          -0.520290       -0.924906       -0.377018
H          -0.016579        2.400825       -0.606386
C          -0.536290        1.858396        1.296773
H          -1.733725       -0.647992        1.495298
C          -1.285247       -0.109007        1.033499
H          -0.153015        1.340830        1.579903
C           0.708144        2.048782        0.055026
H          -0.000635        0.456896       -1.370493
H          -1.809386       -1.481862       -0.163392
16
reaction_000_gen_9_frame_0665
H           0.424831       -1.615117       -1.496913
C           0.466112       -1.230597       -1.149548
H           0.728617       -1.109888       -0.374804
C           0.613320        0.464212       -0.426158
H           1.563438       -0.716260        0.395839
H           1.936687        1.100136       -1.178012
H          -0.426554       -1.823221        1.347659
C          -0.527707       -0.903702       -0.386029
H          -0.020927        2.346156       -0.567887
C          -0.570150        1.852574        1.282362
H          -1.689393       -0.680346        1.477762
C          -1.296083       -0.078274        1.047027
H          -0.162354        1.390486        1.534181
C           0.734720        2.010743        0.040418
H           0.013840        0.516315       -1.394184
H          -1.788396       -1.523217       -0.151712
16
reaction_000_gen_9_frame_0666
H           0.407809       -1.589645       -1.492108
C           0.473844       -1.192086       -1.103102
H           0.717003       -1.095029       -0.371585
C           0.670031        0.427241       -0.342808
H           1.597740       -0.685062        0.342376
H           1.936272        1.146462       -1.269079
H          -0.447625       -1.872240        1.396375
C          -0.471598       -0.881858       -0.434742
H          -0.046308        2.369804       -0.578700
C          -0.645554        1.786601        1.279113
H          -1.655560       -0.743806        1.467014
C          -1.328930       -0.043416        1.044378
H          -0.136141        1.420027        1.521670
C           0.744066        1.994207        0.062042
H          -0.003764        0.496299       -1.392739
H          -1.811284       -1.537498       -0.128105
16
reaction_000_gen_9_frame_0667
H           0.409022       -1.594519       -1.449094
C           0.499628       -1.209628       -1.132879
H           0.741759       -1.108340       -0.335527
C           0.613935        0.431052       -0.361386
H           1.578320       -0.635179        0.331617
H           1.926540        1.186419       -1.287849
H          -0.436883       -1.890335        1.375998
C          -0.424718       -0.851384       -0.427837
H          -0.007166        2.402716       -0.536483
C          -0.639239        1.748436        1.268515
H          -1.640811       -0.713867        1.451179
C          -1.369009       -0.037817        1.042280
H          -0.161339        1.461642        1.582316
C           0.736520        1.868614        0.051496
H          -0.038825        0.456882       -1.424947
H          -1.787734       -1.514693       -0.147399
16
reaction_000_gen_9_frame_0668
H           0.471450       -1.594449       -1.472070
C           0.490431       -1.215862       -1.151935
H           0.710853       -1.126835       -0.319764
C           0.570369        0.399364       -0.372281
H           1.577286       -0.598404        0.332812
H           1.855668        1.165702       -1.292327
H          -0.442741       -1.864717        1.376987
C          -0.398889       -0.819036       -0.372640
H           0.061659        2.446419       -0.497200
C          -0.626925        1.772244        1.278635
H          -1.623714       -0.707653        1.389358
C          -1.391252       -0.064795        1.027065
H          -0.184715        1.465502        1.621439
C           0.721988        1.839321        0.060955
H          -0.003929        0.428446       -1.408040
H          -1.787538       -1.525248       -0.200992
16
reaction_000_gen_9_frame_0669
H           0.424813       -1.575950       -1.474457
C           0.475392       -1.228794       -1.171729
H           0.749904       -1.166526       -0.366890
C           0.558030        0.379443       -0.428152
H           1.553416       -0.546310        0.326648
H           1.857243        1.107292       -1.276566
H          -0.415519       -1.843489        1.390103
C          -0.418600       -0.831981       -0.395581
H           0.095745        2.502786       -0.517224
C          -0.643373        1.755923        1.242414
H          -1.627076       -0.723112        1.418277
C          -1.336058       -0.001083        1.031591
H          -0.209684        1.481570        1.698261
C           0.661265        1.790714        0.035570
H           0.064973        0.484287       -1.349110
H          -1.790473       -1.584770       -0.163156
16
reaction_000_gen_9_frame_0670
H           0.484822       -1.539567       -1.478709
C           0.453225       -1.246098       -1.132163
H           0.763470       -1.113076       -0.374114
C           0.569821        0.425214       -0.385810
H           1.558994       -0.580116        0.325500
H           1.903200        1.088342       -1.297096
H          -0.407893       -1.869507        1.411651
C          -0.461740       -0.823639       -0.410704
H           0.025835        2.473375       -0.467785
C          -0.651112        1.761803        1.228349
H          -1.653299       -0.698305        1.445461
C          -1.307961       -0.025047        0.964333
H          -0.177336        1.473752        1.657108
C           0.620229        1.828993        0.128476
H           0.061932        0.480968       -1.397162
H          -1.782187       -1.637093       -0.217335
16
reaction_000_gen_9_frame_0671
H           0.563498       -1.548747       -1.466509
C           0.533990       -1.302911       -1.151033
H           0.704133       -1.119398       -0.289413
C           0.605350        0.422808       -0.454776
H           1.554300       -0.506783        0.343971
H           1.908175        1.033807       -1.300430
H          -0.443727       -1.875923        1.412376
C          -0.464590       -0.801076       -0.393422
H          -0.073572        2.454550       -0.442220
C          -0.637967        1.774356        1.261032
H          -1.688736       -0.756057        1.436081
C          -1.264224        0.031264        0.956807
H          -0.121118        1.445378        1.625258
C           0.586482        1.856152        0.118072
H           0.043345        0.512924       -1.402992
H          -1.805339       -1.620343       -0.252802
16
reaction_000_gen_9_frame_0672
H           0.536588       -1.598290       -1.416476
C           0.531258       -1.324286       -1.149003
H           0.692763       -1.090228       -0.252536
C           0.574057        0.479523       -0.504928
H           1.593489       -0.451987        0.370764
H           1.887636        1.023679       -1.303304
H          -0.437372       -1.866912        1.434426
C          -0.447827       -0.779463       -0.396077
H          -0.105141        2.472343       -0.512224
C          -0.685122        1.672897        1.260697
H          -1.662469       -0.766935        1.412372
C          -1.209853        0.058334        0.928832
H          -0.114870        1.359689        1.634337
C           0.593616        1.823204        0.109460
H           0.057719        0.589897       -1.364141
H          -1.804471       -1.601465       -0.252199
16
reaction_000_gen_9_frame_0673
H           0.528352       -1.685073       -1.384841
C           0.587493       -1.406547       -1.169193
H           0.711505       -1.097624       -0.295533
C           0.602142        0.517467       -0.458940
H           1.585681       -0.399795        0.353015
H           1.909666        1.022133       -1.277761
H          -0.469218       -1.876231        1.458185
C          -0.494017       -0.799433       -0.309271
H          -0.069261        2.512583       -0.563091
C          -0.749805        1.666776        1.214677
H          -1.684321       -0.821426        1.356376
C          -1.199960        0.082053        0.973293
H          -0.133150        1.413282        1.605220
C           0.571999        1.860146        0.078165
H           0.082471        0.591344       -1.308056
H          -1.779578       -1.579655       -0.272245
16
reaction_000_gen_9_frame_0674
H           0.544434       -1.641040       -1.410832
C           0.588290       -1.339300       -1.155505
H           0.711141       -1.131516       -0.351305
C           0.648327        0.522946       -0.484654
H           1.501643       -0.459270        0.364371
H           1.870784        1.050382       -1.360843
H          -0.459842       -1.895282        1.488904
C          -0.474985       -0.838290       -0.220066
H          -0.065765        2.442766       -0.520445
C          -0.729275        1.719742        1.156889
H          -1.723447       -0.785568        1.416555
C          -1.173165        0.083076        0.999592
H          -0.147866        1.426657        1.584805
C           0.587829        1.857752        0.086385
H           0.102510        0.555482       -1.322328
H          -1.780611       -1.568536       -0.271523
16
reaction_000_gen_9_frame_0675
H           0.480127       -1.634392       -1.408043
C           0.563922       -1.330458       -1.162856
H           0.735507       -1.133861       -0.350572
C           0.626077        0.447113       -0.440779
H           1.508251       -0.541512        0.301282
H           1.888162        1.027612       -1.327253
H          -0.430828       -1.831958        1.514544
C          -0.517794       -0.822665       -0.217643
H          -0.108103        2.432519       -0.490358
C          -0.766985        1.707716        1.230617
H          -1.629963       -0.779378        1.401064
C          -1.156187        0.163921        0.991239
H          -0.176320        1.438980        1.518418
C           0.579668        1.862652        0.002717
H           0.112638        0.567180       -1.315312
H          -1.708172       -1.573467       -0.247064
16
reaction_000_gen_9_frame_0676
H           0.504863       -1.601053       -1.411746
C           0.613143       -1.375520       -1.183513
H           0.736013       -1.149265       -0.376437
C           0.667011        0.431399       -0.470824
H           1.425170       -0.585334        0.237398
H           1.926964        1.035850       -1.278106
H          -0.451427       -1.753761        1.584584
C          -0.487979       -0.779139       -0.251237
H          -0.133624        2.423802       -0.511436
C          -0.789919        1.709457        1.214928
H          -1.664884       -0.758050        1.475597
C          -1.127314        0.107521        0.987361
H          -0.188575        1.440080        1.542232
C           0.538712        1.809065        0.017124
H           0.099781        0.572524       -1.344663
H          -1.667935       -1.527576       -0.231261
16
reaction_000_gen_9_frame_0677
H           0.576431       -1.576007       -1.392487
C           0.670227       -1.336261       -1.205550
H           0.748409       -1.198044       -0.382189
C           0.655415        0.424243       -0.499642
H           1.440901       -0.581208        0.230003
H           1.885615        0.998620       -1.367421
H          -0.511201       -1.767667        1.577351
C          -0.441997       -0.812957       -0.224648
H          -0.137521        2.417368       -0.500193
C          -0.802737        1.703092        1.190258
H          -1.663728       -0.743501        1.491026
C          -1.117582        0.151836        1.026638
H          -0.184268        1.389862        1.550670
C           0.506113        1.827519        0.044013
H           0.065691        0.637258       -1.301266
H          -1.689767       -1.534153       -0.236565
16
reaction_000_gen_9_frame_0678
H           0.591858       -1.599585       -1.405682
C           0.636649       -1.256982       -1.227077
H           0.723398       -1.165715       -0.417327
C           0.645942        0.430137       -0.498912
H           1.490224       -0.512322        0.227310
H           1.886180        0.984356       -1.379273
H          -0.519028       -1.839834        1.536924
C          -0.432460       -0.843947       -0.208577
H          -0.158684        2.403428       -0.439018
C          -0.861840        1.706842        1.175896
H          -1.590726       -0.796834        1.546068
C          -1.080410        0.183405        1.070163
H          -0.206532        1.361742        1.591041
C           0.524870        1.844583        0.007291
H           0.010632        0.642864       -1.303475
H          -1.660072       -1.542138       -0.275354
16
reaction_000_gen_9_frame_0679
H           0.629462       -1.603421       -1.418763
C           0.672428       -1.231668       -1.221158
H           0.684066       -1.200666       -0.437394
C           0.641628        0.364261       -0.480881
H           1.444899       -0.461781        0.274239
H           1.850343        1.055440       -1.428809
H          -0.503175       -1.752258        1.553867
C          -0.396221       -0.890002       -0.228247
H          -0.182486        2.378133       -0.457453
C          -0.864466        1.685607        1.235668
H          -1.575483       -0.811879        1.571374
C          -1.037346        0.183937        1.054748
H          -0.209577        1.351463        1.509230
C           0.500887        1.818676        0.021352
H           0.023437        0.627641       -1.320524
H          -1.678397       -1.513483       -0.227249
16
reaction_000_gen_9_frame_0680
H           0.643216       -1.605765       -1.436700
C           0.687046       -1.223366       -1.173725
H           0.667456       -1.252679       -0.434199
C           0.591620        0.351549       -0.477621
H           1.505317       -0.414275        0.336421
H           1.875544        1.010449       -1.480069
H          -0.514201       -1.747194        1.554747
C          -0.395625       -0.917377       -0.202528
H          -0.113635        2.379808       -0.485387
C          -0.891534        1.701924        1.258309
H          -1.618597       -0.759801        1.543693
C          -1.065891        0.208148        1.063920
H          -0.207889        1.354387        1.533336
C           0.481538        1.880285       -0.023255
H           0.000003        0.598829       -1.367867
H          -1.644367       -1.564921       -0.209074
16
reaction_000_gen_9_frame_0681
H           0.704563       -1.542845       -1.442031
C           0.713092       -1.226289       -1.118717
H           0.659517       -1.249954       -0.451772
C           0.587518        0.351799       -0.502647
H           1.481464       -0.390359        0.364486
H           1.832850        0.998168       -1.483238
H          -0.502413       -1.817075        1.548208
C          -0.366637       -0.921643       -0.174229
H          -0.173107        2.384079       -0.523661
C          -0.819301        1.720716        1.264869
H          -1.631931       -0.802205        1.525975
C          -1.077409        0.148857        1.022214
H          -0.186001        1.382034        1.567367
C           0.437878        1.965492       -0.031846
H           0.002776        0.541419       -1.328792
H          -1.662859       -1.542192       -0.236185
16
reaction_000_gen_9_frame_0682
H           0.642927       -1.590943       -1.406147
C           0.720956       -1.247681       -1.117412
H           0.688891       -1.233021       -0.458332
C           0.600067        0.286963       -0.477733
H           1.458962       -0.364445        0.401712
H           1.749845        1.026253       -1.490602
H          -0.479054       -1.794156        1.555781
C          -0.430091       -0.975839       -0.139331
H          -0.164889        2.438183       -0.592425
C          -0.807929        1.803428        1.261197
H          -1.612181       -0.865773        1.551006
C          -1.065039        0.139092        1.015615
H          -0.212338        1.354044        1.512299
C           0.506253        2.016044       -0.003848
H           0.010606        0.574524       -1.384591
H          -1.606985       -1.566671       -0.227187
16
reaction_000_gen_9_frame_0683
H           0.672346       -1.523219       -1.353413
C           0.679905       -1.326637       -1.151596
H           0.732745       -1.245530       -0.411098
C           0.561881        0.262477       -0.443956
H           1.536101       -0.418860        0.382768
H           1.704294        1.029711       -1.500862
H          -0.513171       -1.781103        1.615411
C          -0.398063       -0.987771       -0.136845
H          -0.119700        2.448278       -0.609485
C          -0.824883        1.861493        1.242805
H          -1.628364       -0.894132        1.541245
C          -1.135209        0.204527        1.002562
H          -0.187663        1.357403        1.504320
C           0.485491        2.045150       -0.046825
H           0.043592        0.556011       -1.403303
H          -1.609303       -1.587799       -0.231728
16
reaction_000_gen_9_frame_0684
H           0.639292       -1.533211       -1.334373
C           0.705056       -1.362689       -1.207309
H           0.716878       -1.217847       -0.350612
C           0.548181        0.255307       -0.537642
H           1.569321       -0.397954        0.350379
H           1.729454        1.081286       -1.468295
H          -0.614725       -1.774945        1.627369
C          -0.340261       -0.991797       -0.191051
H          -0.082728        2.466244       -0.579269
C          -0.805939        1.858848        1.304209
H          -1.624363       -0.918410        1.565945
C          -1.164264        0.118146        1.002491
H          -0.142640        1.367420        1.521323
C           0.409494        2.117059       -0.057106
H           0.070221        0.531180       -1.413504
H          -1.612976       -1.598637       -0.232556
16
reaction_000_gen_9_frame_0685
H           0.577585       -1.512335       -1.333614
C           0.695775       -1.358694       -1.207411
H           0.687559       -1.223645       -0.303166
C           0.528433        0.280773       -0.489191
H           1.563092       -0.413706        0.357421
H           1.714559        1.008263       -1.471472
H          -0.541775       -1.736317        1.630291
C          -0.298540       -0.996846       -0.194941
H          -0.065751        2.473543       -0.551865
C          -0.760785        1.866933        1.304058
H          -1.611846       -0.915931        1.501640
C          -1.188980        0.156455        1.001777
H          -0.159307        1.350876        1.461955
C           0.425324        2.066816       -0.053059
H          -0.002790        0.549804       -1.419751
H          -1.562552       -1.595986       -0.232672
16
reaction_000_gen_9_frame_0686
H           0.585018       -1.452058       -1.307526
C           0.711302       -1.353381       -1.200062
H           0.619541       -1.204605       -0.325936
C           0.575857        0.337953       -0.438964
H           1.547279       -0.401824        0.314176
H           1.734541        1.008834       -1.517513
H          -0.564200       -1.722198        1.650626
C          -0.291313       -0.997522       -0.170694
H           0.004541        2.437410       -0.603079
C          -0.792043        1.830805        1.266132
H          -1.609587       -0.958099        1.507662
C          -1.167402        0.145263        0.949702
H          -0.169444        1.355744        1.481889
C           0.415785        2.058403        0.036583
H          -0.000159        0.551828       -1.428288
H          -1.599716       -1.636553       -0.214708
16
reaction_000_gen_9_frame_0687
H           0.550882       -1.460729       -1.335583
C           0.728728       -1.342999       -1.241105
H           0.611861       -1.183090       -0.348715
C           0.587745        0.349533       -0.487563
H           1.568958       -0.428336        0.363831
H           1.774207        1.047198       -1.570346
H          -0.592421       -1.718574        1.716896
C          -0.229782       -0.992153       -0.177817
H           0.005075        2.456063       -0.616015
C          -0.798855        1.810738        1.266855
H          -1.593222       -0.941992        1.566713
C          -1.137939        0.133568        0.963285
H          -0.203511        1.330765        1.487403
C           0.410261        2.016108        0.077636
H          -0.069121        0.528028       -1.438729
H          -1.612864       -1.604129       -0.226747
16
reaction_000_gen_9_frame_0688
H           0.571010       -1.538732       -1.342816
C           0.730066       -1.345286       -1.257230
H           0.617601       -1.233796       -0.336244
C           0.643669        0.351327       -0.507043
H           1.577618       -0.468541        0.369430
H           1.744154        1.030352       -1.656615
H          -0.606508       -1.701212        1.761535
C          -0.183722       -0.957907       -0.211299
H          -0.032745        2.493737       -0.579075
C          -0.868099        1.770500        1.211618
H          -1.603845       -0.893793        1.598305
C          -1.106669        0.140326        0.985281
H          -0.233753        1.372746        1.501991
C           0.399641        2.045543        0.084830
H          -0.054183        0.553145       -1.473371
H          -1.594235       -1.618409       -0.149296
16
reaction_000_gen_9_frame_0689
H           0.535417       -1.551889       -1.310730
C           0.660894       -1.364140       -1.251270
H           0.594801       -1.302167       -0.298058
C           0.747851        0.409908       -0.527096
H           1.562655       -0.493491        0.362662
H           1.770326        1.018454       -1.587387
H          -0.674442       -1.621153        1.721456
C          -0.137145       -0.970096       -0.189533
H          -0.039512        2.506106       -0.592301
C          -0.873714        1.810634        1.223297
H          -1.604081       -0.937219        1.488844
C          -1.081388        0.187719        1.013750
H          -0.182590        1.379328        1.491066
C           0.345825        2.034286        0.059467
H          -0.046652        0.470599       -1.500067
H          -1.578246       -1.576881       -0.104099
16
reaction_000_gen_9_frame_0690
H           0.509943       -1.573650       -1.265322
C           0.618578       -1.382944       -1.250209
H           0.648768       -1.336159       -0.303144
C           0.718171        0.426815       -0.509066
H           1.611660       -0.447440        0.376671
H           1.784405        1.053107       -1.655280
H          -0.688833       -1.663682        1.698912
C          -0.115229       -1.011387       -0.138530
H          -0.050867        2.517446       -0.658784
C          -0.836740        1.747946        1.260895
H          -1.652318       -0.932531        1.548086
C          -1.105827        0.215000        1.040246
H          -0.185708        1.405219        1.415706
C           0.332815        2.018040        0.054774
H          -0.054660        0.544447       -1.513585
H          -1.534158       -1.580226       -0.101370
16
reaction_000_gen_9_frame_0691
H           0.540853       -1.619069       -1.231850
C           0.655546       -1.446094       -1.218843
H           0.688744       -1.353509       -0.340400
C           0.752753        0.486177       -0.470005
H           1.615688       -0.475775        0.337222
H           1.721766        1.146442       -1.629673
H          -0.670146       -1.657178        1.697408
C          -0.086759       -1.095630       -0.148603
H          -0.117576        2.484719       -0.620312
C          -0.859184        1.740888        1.248251
H          -1.657415       -0.967136        1.528439
C          -1.161061        0.237054        0.988946
H          -0.174720        1.389894        1.430370
C           0.323339        2.084580        0.050986
H          -0.087520        0.639705       -1.544632
H          -1.484308       -1.595069       -0.077304
16
reaction_000_gen_9_frame_0692
H           0.505094       -1.659933       -1.239342
C           0.662253       -1.404382       -1.184978
H           0.732438       -1.314966       -0.358735
C           0.834718        0.511572       -0.461375
H           1.593148       -0.451103        0.363886
H           1.737011        1.151672       -1.648171
H          -0.751658       -1.673615        1.695882
C          -0.153557       -1.111121       -0.176587
H          -0.078736        2.473169       -0.574543
C          -0.828358        1.751599        1.298061
H          -1.674222       -0.971365        1.482970
C          -1.135578        0.269796        0.957660
H          -0.119512        1.368146        1.485465
C           0.327374        2.034461        0.030703
H          -0.115033        0.620164       -1.597757
H          -1.535383       -1.594097       -0.073138
16
reaction_000_gen_9_frame_0693
H           0.515277       -1.654027       -1.283891
C           0.658994       -1.366146       -1.182481
H           0.681748       -1.318643       -0.355805
C           0.810404        0.508905       -0.444469
H           1.594871       -0.472183        0.417939
H           1.723430        1.180740       -1.738583
H          -0.754476       -1.657174        1.725727
C          -0.102252       -1.083049       -0.217039
H          -0.091414        2.504099       -0.525420
C          -0.813559        1.744151        1.331080
H          -1.697015       -1.046952        1.461998
C          -1.084715        0.276151        0.981381
H          -0.115494        1.362376        1.432741
C           0.322389        1.989398        0.027450
H          -0.101541        0.626820       -1.599507
H          -1.546647       -1.594468       -0.031120
16
reaction_000_gen_9_frame_0694
H           0.522526       -1.669049       -1.315036
C           0.658957       -1.365015       -1.175234
H           0.633162       -1.362632       -0.386304
C           0.846759        0.530769       -0.395739
H           1.591199       -0.505424        0.374025
H           1.729688        1.164450       -1.692529
H          -0.750593       -1.608455        1.731286
C          -0.129550       -1.106400       -0.199081
H          -0.075682        2.582902       -0.561675
C          -0.815280        1.773331        1.351434
H          -1.757311       -1.071172        1.444638
C          -1.140738        0.243470        0.979669
H          -0.095837        1.380385        1.457870
C           0.338165        2.023225        0.033759
H          -0.048916        0.586588       -1.599242
H          -1.506549       -1.596973       -0.047839
16
reaction_000_gen_9_frame_0695
H           0.454594       -1.668608       -1.279238
C           0.681482       -1.423163       -1.113253
H           0.674566       -1.308799       -0.390539
C           0.814577        0.518061       -0.480073
H           1.635422       -0.436290        0.394309
H           1.721600        1.157147       -1.731477
H          -0.701252       -1.607269        1.707832
C          -0.104211       -1.086534       -0.171032
H          -0.070025        2.573027       -0.602443
C          -0.777979        1.776860        1.343774
H          -1.805024       -1.089857        1.384895
C          -1.148599        0.221351        1.031383
H          -0.101826        1.394598        1.522350
C           0.378898        1.992720        0.046047
H          -0.117986        0.580303       -1.591052
H          -1.534239       -1.593548       -0.071483
16
reaction_000_gen_9_frame_0696
H           0.430849       -1.690149       -1.281124
C           0.695635       -1.383558       -1.125152
H           0.700636       -1.319407       -0.373289
C           0.796566        0.510977       -0.494887
H           1.604184       -0.455188        0.377306
H           1.760721        1.141012       -1.712647
H          -0.695423       -1.611121        1.704186
C          -0.091839       -1.129271       -0.114800
H          -0.002484        2.533932       -0.612391
C          -0.820362        1.798063        1.314831
H          -1.767986       -1.071684        1.348747
C          -1.149217        0.255661        1.058255
H          -0.118335        1.402170        1.519924
C           0.360720        2.058653        0.029037
H          -0.161622        0.532870       -1.578036
H          -1.542044       -1.572959       -0.059958
16
reaction_000_gen_9_frame_0697
H           0.453697       -1.724000       -1.327569
C           0.711507       -1.428496       -1.151084
H           0.712805       -1.349786       -0.401109
C           0.735594        0.539902       -0.479600
H           1.629991       -0.455911        0.391456
H           1.710263        1.148766       -1.622630
H          -0.711321       -1.638863        1.702018
C          -0.013908       -1.127223       -0.082095
H          -0.001762        2.515093       -0.606649
C          -0.777257        1.758155        1.298862
H          -1.773012       -1.044087        1.320756
C          -1.222773        0.255793        1.040274
H          -0.104734        1.468484        1.482665
C           0.386644        2.071645        0.064723
H          -0.162065        0.576971       -1.546687
H          -1.573668       -1.566444       -0.083332
16
reaction_000_gen_9_frame_0698
H           0.477551       -1.758267       -1.289393
C           0.674830       -1.428934       -1.141909
H           0.676628       -1.340660       -0.364390
C           0.769531        0.478355       -0.456222
H           1.604644       -0.409849        0.437924
H           1.697565        1.155086       -1.626858
H          -0.686176       -1.660322        1.697173
C           0.001048       -1.078731       -0.155520
H           0.024635        2.473199       -0.631993
C          -0.786141        1.690319        1.292099
H          -1.707749       -1.027079        1.306328
C          -1.240660        0.317285        1.048454
H          -0.081912        1.481745        1.437791
C           0.304182        2.121789        0.069925
H          -0.157613        0.553459       -1.554519
H          -1.570364       -1.567396       -0.068890
16
reaction_000_gen_9_frame_0699
H           0.451863       -1.778173       -1.257699
C           0.651082       -1.438082       -1.163909
H           0.696526       -1.395213       -0.319278
C           0.770668        0.475026       -0.505129
H           1.618505       -0.395142        0.352378
H           1.672066        1.154770       -1.638371
H          -0.734947       -1.668448        1.693861
C          -0.011594       -1.048326       -0.187290
H           0.034057        2.511991       -0.567735
C          -0.783418        1.726283        1.297132
H          -1.683946       -0.978651        1.319991
C          -1.279967        0.308561        1.092307
H          -0.049406        1.480872        1.402970
C           0.340419        2.183050        0.029333
H          -0.127958        0.500605       -1.533381
H          -1.563949       -1.639124       -0.015180
16
reaction_000_gen_9_frame_0700
H           0.484552       -1.714710       -1.269531
C           0.619454       -1.406370       -1.173571
H           0.705033       -1.448776       -0.364936
C           0.719593        0.444115       -0.419602
H           1.639328       -0.338818        0.381829
H           1.676584        1.160953       -1.653062
H          -0.776541       -1.693809        1.701969
C          -0.013204       -1.093179       -0.256098
H           0.042085        2.537679       -0.517532
C          -0.819777        1.740741        1.261668
H          -1.639552       -1.035198        1.309224
C          -1.247242        0.325443        1.059675
H          -0.023845        1.463718        1.417316
C           0.338068        2.187595        0.040567
H          -0.126390        0.525854       -1.559787
H          -1.578146       -1.655237        0.041869
16
reaction_000_gen_9_frame_0701
H           0.440073       -1.683460       -1.293359
C           0.678620       -1.412337       -1.130723
H           0.715263       -1.490837       -0.343491
C           0.693692        0.482894       -0.424828
H           1.664999       -0.356140        0.398989
H           1.681185        1.172958       -1.633326
H          -0.830039       -1.722563        1.742918
C           0.004097       -1.162538       -0.292994
H           0.060841        2.560353       -0.574090
C          -0.792398        1.752801        1.307077
H          -1.689138       -1.034754        1.233804
C          -1.248487        0.397059        1.086730
H           0.032538        1.481446        1.445741
C           0.346909        2.145227        0.011595
H          -0.188152        0.492175       -1.605179
H          -1.570003       -1.622282        0.071137
16
reaction_000_gen_9_frame_0702
H           0.445576       -1.738240       -1.248283
C           0.685958       -1.438516       -1.105847
H           0.705535       -1.483505       -0.342389
C           0.683685        0.476085       -0.404555
H           1.667681       -0.301854        0.392552
H           1.716185        1.226796       -1.614380
H          -0.874823       -1.725976        1.704147
C           0.067836       -1.176174       -0.301932
H           0.043651        2.550273       -0.597946
C          -0.712770        1.726639        1.304095
H          -1.652128       -0.983155        1.203396
C          -1.264591        0.405499        1.081481
H           0.055183        1.459072        1.465715
C           0.266285        2.134990       -0.023497
H          -0.213687        0.521663       -1.575994
H          -1.619579       -1.653597        0.063438
16
reaction_000_gen_9_frame_0703
H           0.475964       -1.801543       -1.253439
C           0.789142       -1.402852       -1.130492
H           0.746414       -1.490747       -0.328756
C           0.668253        0.474815       -0.335554
H           1.654656       -0.279991        0.440792
H           1.715618        1.210581       -1.662670
H          -0.888664       -1.683491        1.727731
C           0.008440       -1.193323       -0.241045
H           0.023179        2.537719       -0.619346
C          -0.736730        1.715001        1.319036
H          -1.600153       -0.910125        1.205456
C          -1.293831        0.425818        1.021285
H           0.044022        1.505351        1.461900
C           0.237759        2.105143       -0.108633
H          -0.218762        0.506679       -1.580650
H          -1.625308       -1.719034        0.084385
16
reaction_000_gen_9_frame_0704
H           0.479720       -1.824827       -1.291923
C           0.770448       -1.350381       -1.113251
H           0.728902       -1.441890       -0.316712
C           0.655542        0.459689       -0.294205
H           1.646598       -0.319429        0.441018
H           1.747420        1.191460       -1.655071
H          -0.875491       -1.685521        1.740953
C           0.012624       -1.201775       -0.269743
H           0.016861        2.551990       -0.637007
C          -0.723483        1.680571        1.322027
H          -1.638916       -0.926368        1.166069
C          -1.264213        0.452536        0.985978
H           0.028872        1.557117        1.505468
C           0.220609        2.053098       -0.100366
H          -0.187992        0.508753       -1.559034
H          -1.617502       -1.705024        0.075798
16
reaction_000_gen_9_frame_0705
H           0.457420       -1.843457       -1.327859
C           0.776263       -1.359852       -1.105059
H           0.726280       -1.411072       -0.313465
C           0.694465        0.432590       -0.193363
H           1.678837       -0.354209        0.503923
H           1.759579        1.184671       -1.673952
H          -0.914528       -1.715508        1.709504
C          -0.004811       -1.199824       -0.287373
H           0.014555        2.594253       -0.627436
C          -0.674077        1.610772        1.343694
H          -1.680347       -0.922815        1.180004
C          -1.316213        0.526291        0.967937
H           0.026921        1.571465        1.435711
C           0.213227        2.072590       -0.109469
H          -0.160033        0.488965       -1.553821
H          -1.597539       -1.674859        0.051026
16
reaction_000_gen_9_frame_0706
H           0.477437       -1.886129       -1.324362
C           0.786709       -1.338852       -1.032230
H           0.725667       -1.394556       -0.307972
C           0.703249        0.451848       -0.260153
H           1.659443       -0.353186        0.556767
H           1.799940        1.159346       -1.688098
H          -0.911026       -1.731274        1.645662
C           0.025354       -1.215269       -0.313233
H           0.000182        2.585398       -0.577048
C          -0.662126        1.579929        1.387324
H          -1.756335       -0.912604        1.142569
C          -1.327788        0.578180        0.971834
H          -0.019707        1.582535        1.466270
C           0.231021        2.073568       -0.107108
H          -0.136251        0.457469       -1.559531
H          -1.595767       -1.636403       -0.000692
16
reaction_000_gen_9_frame_0707
H           0.474281       -1.854772       -1.304864
C           0.758705       -1.377032       -1.018884
H           0.719436       -1.408915       -0.272514
C           0.725278        0.455181       -0.276800
H           1.649004       -0.343221        0.574102
H           1.803660        1.169994       -1.694197
H          -0.886477       -1.713912        1.605611
C          -0.009501       -1.225029       -0.293252
H          -0.011957        2.608989       -0.581545
C          -0.650623        1.534414        1.422572
H          -1.768684       -0.922590        1.148920
C          -1.303214        0.576269        0.979490
H           0.024010        1.563555        1.423220
C           0.228725        2.102096       -0.145267
H          -0.113440        0.482022       -1.548405
H          -1.639204       -1.647047       -0.018188
16
reaction_000_gen_9_frame_0708
H           0.452802       -1.827719       -1.282110
C           0.845767       -1.345287       -1.054881
H           0.704815       -1.435196       -0.253690
C           0.756275        0.458086       -0.310134
H           1.633571       -0.355354        0.623718
H           1.809838        1.172145       -1.679647
H          -0.917697       -1.720413        1.593216
C          -0.046258       -1.187991       -0.295468
H           0.003962        2.626661       -0.633954
C          -0.608407        1.513796        1.449865
H          -1.799960       -0.982820        1.161397
C          -1.250579        0.549280        0.959289
H          -0.082547        1.584188        1.445812
C           0.189086        2.076537       -0.154747
H          -0.063019        0.515854       -1.554449
H          -1.627649       -1.641769       -0.014216
16
reaction_000_gen_9_frame_0709
H           0.490179       -1.832306       -1.302598
C           0.825594       -1.366519       -1.027537
H           0.660943       -1.443745       -0.270159
C           0.766172        0.513756       -0.290158
H           1.614708       -0.332952        0.658024
H           1.803638        1.148497       -1.686810
H          -0.935877       -1.726032        1.548431
C          -0.119331       -1.189808       -0.320893
H          -0.011078        2.668208       -0.605862
C          -0.591837        1.505017        1.500755
H          -1.857433       -1.040422        1.187524
C          -1.218376        0.550477        0.935306
H          -0.046802        1.623041        1.479702
C           0.256128        2.061957       -0.187136
H          -0.045681        0.532742       -1.549518
H          -1.590946       -1.671909       -0.069071
16
reaction_000_gen_9_frame_0710
H           0.465567       -1.840936       -1.339244
C           0.788201       -1.387796       -1.037189
H           0.649161       -1.420117       -0.267609
C           0.818162        0.522513       -0.318005
H           1.646442       -0.367242        0.712178
H           1.785552        1.160610       -1.731587
H          -0.930834       -1.694410        1.615457
C          -0.095940       -1.253285       -0.307732
H          -0.006115        2.636227       -0.580397
C          -0.620094        1.539940        1.440488
H          -1.862382       -1.060472        1.195478
C          -1.213024        0.585614        0.940949
H          -0.036126        1.655452        1.512001
C           0.242459        2.040071       -0.232841
H          -0.061319        0.505781       -1.524689
H          -1.569708       -1.621949       -0.077256
16
reaction_000_gen_9_frame_0711
H           0.435460       -1.856759       -1.316713
C           0.808247       -1.343256       -1.029587
H           0.625850       -1.402614       -0.305913
C           0.792289        0.578957       -0.323330
H           1.712173       -0.381046        0.743383
H           1.740259        1.161185       -1.768768
H          -0.863464       -1.681962        1.599097
C          -0.147557       -1.251032       -0.335406
H           0.020781        2.607409       -0.623263
C          -0.608094        1.576854        1.475076
H          -1.827853       -1.059467        1.176813
C          -1.274315        0.529768        0.955716
H          -0.038812        1.646827        1.552559
C           0.229127        1.976170       -0.238101
H          -0.066756        0.530246       -1.479162
H          -1.537336       -1.631277       -0.082400
16
reaction_000_gen_9_frame_0712
H           0.417769       -1.878138       -1.333759
C           0.792132       -1.380162       -0.974721
H           0.642259       -1.385622       -0.303173
C           0.749448        0.603602       -0.319036
H           1.768853       -0.341801        0.739824
H           1.724721        1.177899       -1.842585
H          -0.890958       -1.705418        1.596219
C          -0.168716       -1.272472       -0.371099
H           0.045315        2.618237       -0.696782
C          -0.633820        1.532387        1.473457
H          -1.817456       -1.087981        1.197917
C          -1.254447        0.559083        0.974236
H           0.030783        1.681098        1.620681
C           0.228492        2.041997       -0.182069
H          -0.098883        0.474665       -1.485448
H          -1.535493       -1.637373       -0.093661
16
reaction_000_gen_9_frame_0713
H           0.391438       -1.872427       -1.345967
C           0.764848       -1.386104       -0.941073
H           0.602980       -1.382980       -0.304672
C           0.644819        0.614881       -0.291416
H           1.776963       -0.341847        0.748026
H           1.724298        1.178524       -1.885919
H          -0.882985       -1.691088        1.633154
C          -0.196599       -1.220913       -0.371419
H           0.085923        2.574611       -0.702610
C          -0.603087        1.540709        1.468475
H          -1.736622       -1.053101        1.217248
C          -1.252584        0.504129        0.947346
H           0.054369        1.713779        1.596994
C           0.247719        2.029178       -0.190999
H          -0.112052        0.428147       -1.443376
H          -1.509427       -1.635498       -0.133793
16
reaction_000_gen_9_frame_0714
H           0.358560       -1.857009       -1.383827
C           0.839821       -1.439885       -0.943768
H           0.585570       -1.345137       -0.265958
C           0.681456        0.632050       -0.286470
H           1.719617       -0.345750        0.764731
H           1.714142        1.151076       -1.856963
H          -0.864626       -1.698571        1.643732
C          -0.250517       -1.185277       -0.376867
H           0.092903        2.584069       -0.725650
C          -0.596220        1.546380        1.449368
H          -1.715675       -1.056373        1.293922
C          -1.220356        0.531429        0.973372
H           0.014883        1.749485        1.559392
C           0.234870        1.982012       -0.213285
H          -0.141419        0.408688       -1.481042
H          -1.453007       -1.657187       -0.150687
16
reaction_000_gen_9_frame_0715
H           0.331756       -1.784683       -1.419659
C           0.826432       -1.493331       -0.961491
H           0.645290       -1.336020       -0.235881
C           0.680626        0.610026       -0.292212
H           1.729106       -0.344385        0.706490
H           1.727611        1.166705       -1.815502
H          -0.913120       -1.730342        1.663011
C          -0.270736       -1.190914       -0.338606
H           0.131381        2.581255       -0.739005
C          -0.609999        1.517237        1.413538
H          -1.714269       -1.078858        1.265935
C          -1.220251        0.480143        0.994355
H           0.031419        1.746576        1.593051
C           0.241014        2.049496       -0.216841
H          -0.172651        0.438697       -1.448758
H          -1.443609       -1.631602       -0.168426
16
reaction_000_gen_9_frame_0716
H           0.345721       -1.814967       -1.451007
C           0.810258       -1.505826       -1.015604
H           0.615350       -1.350913       -0.219002
C           0.676420        0.637366       -0.336145
H           1.750937       -0.324289        0.676745
H           1.769239        1.164236       -1.796756
H          -0.882208       -1.650063        1.637343
C          -0.279764       -1.243927       -0.317772
H           0.162085        2.591506       -0.756837
C          -0.589859        1.470937        1.449654
H          -1.651352       -1.128956        1.323931
C          -1.234758        0.495402        0.961657
H          -0.033674        1.782587        1.604385
C           0.236928        2.065581       -0.219893
H          -0.215660        0.468727       -1.335528
H          -1.479664       -1.657401       -0.205170
16
reaction_000_gen_9_frame_0717
H           0.400844       -1.762497       -1.464746
C           0.770001       -1.513590       -0.986714
H           0.643413       -1.387387       -0.162193
C           0.721593        0.643864       -0.387766
H           1.774892       -0.408379        0.671604
H           1.781721        1.179000       -1.830137
H          -0.856817       -1.644750        1.682597
C          -0.352096       -1.278751       -0.276895
H           0.193103        2.619393       -0.712293
C          -0.592254        1.480300        1.460563
H          -1.603721       -1.112568        1.315314
C          -1.235532        0.522673        1.010570
H          -0.108579        1.789508        1.539701
C           0.193631        2.052710       -0.225231
H          -0.225650        0.437371       -1.413307
H          -1.504550       -1.616898       -0.221068
16
reaction_000_gen_9_frame_0718
H           0.407529       -1.819484       -1.405435
C           0.742860       -1.508220       -1.025205
H           0.634429       -1.332371       -0.182270
C           0.683352        0.670431       -0.369342
H           1.736224       -0.434524        0.682285
H           1.837335        1.111439       -1.801441
H          -0.805699       -1.675527        1.659926
C          -0.360680       -1.229410       -0.243645
H           0.162166        2.588662       -0.767142
C          -0.621054        1.461983        1.471339
H          -1.624588       -1.137212        1.297349
C          -1.252179        0.520453        1.051664
H          -0.055931        1.826185        1.568899
C           0.200462        2.092258       -0.235350
H          -0.192699        0.500861       -1.433550
H          -1.491526       -1.635525       -0.268082
16
reaction_000_gen_9_frame_0719
H           0.447323       -1.785323       -1.417706
C           0.734744       -1.550644       -0.980002
H           0.711532       -1.295764       -0.181629
C           0.701495        0.654081       -0.367675
H           1.784701       -0.490948        0.705873
H           1.811636        1.054412       -1.807870
H          -0.804588       -1.671133        1.709515
C          -0.382073       -1.233862       -0.204154
H           0.141616        2.667370       -0.831569
C          -0.626961        1.483438        1.461177
H          -1.669579       -1.196757        1.279423
C          -1.250700        0.487868        1.004343
H          -0.108045        1.863906        1.602703
C           0.204160        2.111140       -0.213224
H          -0.188601        0.523350       -1.461547
H          -1.506659       -1.621134       -0.297659
16
reaction_000_gen_9_frame_0720
H           0.491202       -1.734236       -1.355405
C           0.753095       -1.531126       -0.950029
H           0.703040       -1.326279       -0.183303
C           0.654711        0.656928       -0.391087
H           1.739136       -0.489117        0.751801
H           1.747503        1.052699       -1.723430
H          -0.806988       -1.712424        1.702836
C          -0.387774       -1.184356       -0.231192
H           0.134996        2.653025       -0.909328
C          -0.653457        1.509777        1.422202
H          -1.636767       -1.204231        1.327520
C          -1.252013        0.429134        0.945713
H          -0.118502        1.873168        1.575673
C           0.247310        2.114588       -0.257077
H          -0.134304        0.551587       -1.450027
H          -1.481189       -1.659137       -0.274867
16
reaction_000_gen_9_frame_0721
H           0.467203       -1.732300       -1.335532
C           0.763737       -1.537824       -0.971464
H           0.697441       -1.337459       -0.226844
C           0.632967        0.651626       -0.343567
H           1.670802       -0.478711        0.733391
H           1.754429        1.054913       -1.705804
H          -0.799523       -1.718949        1.672751
C          -0.350563       -1.232050       -0.249235
H           0.146684        2.621114       -0.945327
C          -0.613986        1.513625        1.409477
H          -1.643386       -1.187141        1.317796
C          -1.247056        0.428815        0.908243
H          -0.115947        1.896764        1.612633
C           0.248835        2.135383       -0.215588
H          -0.133264        0.575264       -1.410397
H          -1.478375       -1.653069       -0.250534
16
reaction_000_gen_9_frame_0722
H           0.446864       -1.735450       -1.378400
C           0.741369       -1.494877       -0.973460
H           0.702395       -1.315089       -0.201812
C           0.611652        0.643553       -0.367778
H           1.715435       -0.417317        0.728929
H           1.758743        1.008907       -1.686350
H          -0.798185       -1.682494        1.652662
C          -0.409602       -1.256236       -0.304603
H           0.119995        2.656183       -0.953770
C          -0.565241        1.454017        1.442001
H          -1.605183       -1.225098        1.390410
C          -1.341846        0.476914        0.989634
H          -0.024816        1.920649        1.587688
C           0.251618        2.076311       -0.254736
H          -0.112818        0.526171       -1.392687
H          -1.490381       -1.636145       -0.277729
16
reaction_000_gen_9_frame_0723
H           0.456411       -1.766004       -1.382130
C           0.754011       -1.477511       -1.006477
H           0.693073       -1.279019       -0.315581
C           0.563002        0.659667       -0.380259
H           1.770613       -0.459340        0.747815
H           1.824251        1.003827       -1.652421
H          -0.816479       -1.717860        1.725599
C          -0.388614       -1.296466       -0.225518
H           0.066260        2.715623       -0.936043
C          -0.532219        1.493676        1.410738
H          -1.631428       -1.182045        1.349193
C          -1.338308        0.456365        1.055704
H          -0.015651        1.901089        1.549981
C           0.189581        2.122984       -0.240326
H          -0.123734        0.496521       -1.399582
H          -1.470768       -1.671508       -0.300692
16
reaction_000_gen_9_frame_0724
H           0.443216       -1.716537       -1.383764
C           0.810652       -1.465791       -1.027078
H           0.688789       -1.298819       -0.264501
C           0.549625        0.705919       -0.312241
H           1.785298       -0.455263        0.697124
H           1.852770        1.019415       -1.667414
H          -0.786882       -1.735533        1.695995
C          -0.411563       -1.333981       -0.333175
H           0.094547        2.728345       -0.866380
C          -0.533874        1.458256        1.385195
H          -1.561049       -1.193413        1.398059
C          -1.340601        0.429703        1.029183
H          -0.076470        1.961114        1.567682
C           0.173986        2.121801       -0.143132
H          -0.184893        0.475790       -1.457092
H          -1.503551       -1.701006       -0.318461
16
reaction_000_gen_9_frame_0725
H           0.413410       -1.681953       -1.385381
C           0.801661       -1.402907       -0.997684
H           0.633338       -1.352929       -0.332580
C           0.630209        0.699147       -0.272962
H           1.728267       -0.482116        0.676617
H           1.938363        0.995346       -1.618646
H          -0.775560       -1.791012        1.702135
C          -0.393824       -1.320674       -0.372228
H           0.085772        2.725848       -0.845737
C          -0.516473        1.499649        1.382277
H          -1.562453       -1.198723        1.406559
C          -1.339676        0.473057        1.008983
H          -0.130275        1.954041        1.644786
C           0.195292        2.122611       -0.180806
H          -0.234709        0.449695       -1.490109
H          -1.473343       -1.689080       -0.325225
16
reaction_000_gen_9_frame_0726
H           0.445800       -1.690879       -1.416832
C           0.817592       -1.370836       -1.004949
H           0.715327       -1.360919       -0.292547
C           0.613490        0.670992       -0.240945
H           1.727142       -0.475533        0.651981
H           1.939713        0.996746       -1.601230
H          -0.834294       -1.794975        1.687308
C          -0.411830       -1.282843       -0.380080
H           0.054125        2.739308       -0.878048
C          -0.548896        1.446773        1.394737
H          -1.592945       -1.211308        1.447367
C          -1.333852        0.483992        0.986138
H          -0.062707        2.008940        1.672793
C           0.154340        2.063006       -0.214702
H          -0.210646        0.438446       -1.518976
H          -1.472359       -1.660909       -0.292014
16
reaction_000_gen_9_frame_0727
H           0.434276       -1.666542       -1.405779
C           0.825000       -1.325407       -0.950193
H           0.728585       -1.367944       -0.274539
C           0.591221        0.636035       -0.208169
H           1.737735       -0.503880        0.568151
H           1.950613        1.002969       -1.627607
H          -0.880085       -1.852980        1.733307
C          -0.477336       -1.284436       -0.311610
H           0.045916        2.739636       -0.925623
C          -0.517863        1.427509        1.381330
H          -1.544662       -1.225705        1.439741
C          -1.332615        0.499411        0.949872
H          -0.101880        2.042026        1.657233
C           0.235200        2.080027       -0.233578
H          -0.237937        0.437007       -1.539880
H          -1.456169       -1.637725       -0.252655
16
reaction_000_gen_9_frame_0728
H           0.431479       -1.692140       -1.367746
C           0.829180       -1.341500       -0.931903
H           0.761250       -1.403931       -0.251173
C           0.573248        0.598221       -0.254126
H           1.688664       -0.464977        0.544853
H           1.917522        1.026772       -1.675565
H          -0.897681       -1.822181        1.772336
C          -0.469015       -1.291923       -0.334315
H           0.080486        2.766093       -0.949869
C          -0.482742        1.446681        1.371017
H          -1.528747       -1.263707        1.543294
C          -1.358516        0.522824        0.958171
H          -0.099548        2.052131        1.670386
C           0.235424        2.042857       -0.257378
H          -0.217284        0.425834       -1.566339
H          -1.463720       -1.601055       -0.271643
16
reaction_000_gen_9_frame_0729
H           0.432443       -1.756606       -1.394972
C           0.788268       -1.276968       -0.921312
H           0.715165       -1.407412       -0.215733
C           0.595068        0.604522       -0.262395
H           1.702346       -0.519862        0.519112
H           1.918728        0.975950       -1.733765
H          -0.934689       -1.830171        1.772356
C          -0.450251       -1.314540       -0.329335
H           0.109140        2.791447       -0.929743
C          -0.469396        1.464172        1.376318
H          -1.497691       -1.245705        1.595181
C          -1.313438        0.513566        0.933716
H          -0.099312        2.062164        1.678403
C           0.250866        2.032696       -0.269722
H          -0.236687        0.457647       -1.539728
H          -1.510561       -1.550902       -0.278382
16
reaction_000_gen_9_frame_0730
H           0.484724       -1.774942       -1.375347
C           0.844991       -1.236755       -0.938525
H           0.756421       -1.422928       -0.228258
C           0.642382        0.544565       -0.237366
H           1.729295       -0.426412        0.532401
H           1.961047        1.021725       -1.744034
H          -0.953300       -1.847168        1.806404
C          -0.526176       -1.262657       -0.288766
H           0.057537        2.750262       -0.925224
C          -0.442618        1.457218        1.343532
H          -1.512497       -1.310701        1.551226
C          -1.326190        0.503494        0.874429
H          -0.140829        2.105281        1.728637
C           0.269402        1.988731       -0.293854
H          -0.245873        0.488207       -1.496471
H          -1.598315       -1.577919       -0.308784
16
reaction_000_gen_9_frame_0731
H           0.463509       -1.816641       -1.387750
C           0.813875       -1.212241       -0.927283
H           0.826686       -1.504383       -0.224166
C           0.694978        0.578228       -0.252986
H           1.763251       -0.402145        0.457578
H           2.001217        1.031649       -1.712354
H          -0.959760       -1.858528        1.797109
C          -0.476869       -1.276171       -0.327872
H           0.033414        2.719905       -0.926223
C          -0.492299        1.526400        1.357870
H          -1.497627       -1.354782        1.583087
C          -1.353022        0.499017        0.906571
H          -0.185426        2.172644        1.713207
C           0.327229        1.997108       -0.336732
H          -0.284466        0.466077       -1.462774
H          -1.674689       -1.566139       -0.257283
16
reaction_000_gen_9_frame_0732
H           0.450142       -1.779698       -1.455184
C           0.794299       -1.153287       -0.950483
H           0.793142       -1.511294       -0.141379
C           0.676106        0.588787       -0.323045
H           1.759255       -0.411653        0.472683
H           1.982533        1.046310       -1.707147
H          -0.962254       -1.793263        1.800773
C          -0.465124       -1.241409       -0.292910
H           0.016216        2.722345       -0.911501
C          -0.514674        1.493675        1.382004
H          -1.495264       -1.392789        1.530429
C          -1.284811        0.514090        0.962882
H          -0.148862        2.144572        1.714020
C           0.332176        1.977097       -0.380830
H          -0.288602        0.428681       -1.434631
H          -1.644278       -1.632162       -0.265681
16
reaction_000_gen_9_frame_0733
H           0.432329       -1.801263       -1.459554
C           0.759610       -1.177354       -0.957851
H           0.774283       -1.592751       -0.165147
C           0.720125        0.658182       -0.317569
H           1.708186       -0.395296        0.514539
H           1.965580        1.037255       -1.733851
H          -0.930540       -1.816832        1.814618
C          -0.476113       -1.211030       -0.302620
H           0.016210        2.702031       -0.848863
C          -0.513462        1.492707        1.363408
H          -1.467419       -1.396137        1.506804
C          -1.336214        0.491870        1.000672
H          -0.122353        2.143240        1.701517
C           0.330474        2.005013       -0.437779
H          -0.255003        0.447434       -1.441303
H          -1.605694       -1.587069       -0.237022
16
reaction_000_gen_9_frame_0734
H           0.454973       -1.707045       -1.443356
C           0.768080       -1.223403       -0.969436
H           0.762154       -1.599573       -0.145990
C           0.763002        0.654583       -0.341797
H           1.706324       -0.348723        0.522890
H           1.869070        1.041971       -1.785753
H          -0.917617       -1.845309        1.816236
C          -0.491313       -1.254418       -0.332459
H          -0.035303        2.736822       -0.889353
C          -0.500644        1.494701        1.406984
H          -1.443692       -1.464162        1.549530
C          -1.332951        0.473148        0.986340
H          -0.086976        2.173624        1.673888
C           0.334227        1.972010       -0.368716
H          -0.299872        0.476567       -1.422343
H          -1.549461       -1.580791       -0.256665
16
reaction_000_gen_9_frame_0735
H           0.406591       -1.733359       -1.466263
C           0.761781       -1.169673       -0.955657
H           0.733130       -1.627811       -0.128097
C           0.762351        0.643945       -0.317245
H           1.694478       -0.336955        0.530125
H           1.908287        1.047806       -1.744724
H          -0.950858       -1.861512        1.807544
C          -0.437324       -1.369933       -0.359275
H          -0.031802        2.762844       -0.922422
C          -0.488994        1.521708        1.398248
H          -1.449049       -1.503173        1.539482
C          -1.290530        0.485262        1.025889
H          -0.083258        2.179544        1.658454
C           0.296158        2.044964       -0.332490
H          -0.285151        0.514363       -1.432000
H          -1.545809       -1.598020       -0.301570
16
reaction_000_gen_9_frame_0736
H           0.387044       -1.815107       -1.469166
C           0.795515       -1.096360       -0.904812
H           0.746343       -1.609981       -0.122907
C           0.738450        0.663150       -0.357224
H           1.677285       -0.327748        0.547376
H           1.838001        1.044029       -1.808715
H          -0.904849       -1.874422        1.772696
C          -0.446646       -1.352531       -0.344907
H          -0.055721        2.768112       -0.895940
C          -0.446865        1.551546        1.380810
H          -1.448228       -1.528251        1.558136
C          -1.275046        0.486810        1.045805
H          -0.080048        2.111293        1.657679
C           0.364108        2.020841       -0.371629
H          -0.323732        0.559990       -1.394837
H          -1.565611       -1.601372       -0.292364
16
reaction_000_gen_9_frame_0737
H           0.333788       -1.839024       -1.427420
C           0.807889       -1.122017       -0.939570
H           0.811957       -1.649264       -0.082172
C           0.704347        0.631217       -0.327753
H           1.738239       -0.300309        0.516016
H           1.862386        1.013802       -1.834434
H          -0.928374       -1.894605        1.809766
C          -0.490337       -1.353365       -0.396120
H          -0.073493        2.814407       -0.865244
C          -0.468953        1.577764        1.405436
H          -1.416672       -1.481269        1.538956
C          -1.292718        0.484196        1.041716
H          -0.116310        2.160724        1.640584
C           0.398446        1.986974       -0.392678
H          -0.344313        0.556097       -1.388420
H          -1.525880       -1.585327       -0.298663
16
reaction_000_gen_9_frame_0738
H           0.358233       -1.879692       -1.439515
C           0.767708       -1.107340       -0.924943
H           0.815490       -1.728047       -0.064689
C           0.688645        0.589552       -0.327786
H           1.702621       -0.295166        0.489597
H           1.939319        1.074721       -1.856903
H          -0.942283       -1.898136        1.791429
C          -0.564985       -1.333548       -0.362401
H          -0.040888        2.758691       -0.887153
C          -0.478208        1.646311        1.397145
H          -1.439885       -1.448481        1.541861
C          -1.274346        0.510604        1.108166
H          -0.080669        2.147618        1.613452
C           0.398863        1.949179       -0.359365
H          -0.367745        0.608422       -1.383928
H          -1.481870       -1.594688       -0.334968
16
reaction_000_gen_9_frame_0739
H           0.318382       -1.879888       -1.433544
C           0.800504       -1.062217       -0.956585
H           0.788270       -1.752565       -0.069569
C           0.674253        0.575811       -0.274041
H           1.717008       -0.340543        0.451149
H           1.921543        1.050400       -1.880277
H          -0.859953       -1.928834        1.770245
C          -0.607972       -1.330494       -0.359914
H          -0.042781        2.765437       -0.820597
C          -0.430822        1.612492        1.428611
H          -1.463684       -1.428259        1.516119
C          -1.285496        0.530843        1.130358
H          -0.163088        2.177605        1.589674
C           0.422904        1.962062       -0.338140
H          -0.327857        0.594231       -1.418882
H          -1.461211       -1.546081       -0.334606
16
reaction_000_gen_9_frame_0740
H           0.257929       -1.844458       -1.428046
C           0.830179       -1.076223       -0.974098
H           0.789144       -1.762062       -0.018325
C           0.732805        0.553399       -0.282341
H           1.705650       -0.295472        0.435474
H           1.853287        1.010074       -1.908627
H          -0.837745       -1.917443        1.710171
C          -0.593857       -1.317203       -0.326493
H          -0.113026        2.792608       -0.842632
C          -0.414855        1.602535        1.428541
H          -1.496560       -1.488068        1.526723
C          -1.294353        0.517573        1.138536
H          -0.137931        2.169691        1.668985
C           0.476083        1.988339       -0.355907
H          -0.290627        0.613474       -1.434001
H          -1.466124       -1.546764       -0.337960
16
reaction_000_gen_9_frame_0741
H           0.226469       -1.833303       -1.428470
C           0.844151       -1.070177       -0.992347
H           0.741344       -1.785282       -0.037170
C           0.726859        0.537922       -0.295451
H           1.726942       -0.303646        0.434980
H           1.881036        1.036970       -1.893449
H          -0.780895       -1.870371        1.696131
C          -0.609259       -1.367268       -0.333605
H          -0.082889        2.884709       -0.835621
C          -0.460000        1.590030        1.418389
H          -1.478356       -1.500054        1.584448
C          -1.286236        0.441929        1.039787
H          -0.175869        2.180252        1.689631
C           0.485315        1.970485       -0.346295
H          -0.293737        0.624909       -1.412197
H          -1.464876       -1.537106       -0.288760
16
reaction_000_gen_9_frame_0742
H           0.199097       -1.824487       -1.481438
C           0.867310       -1.043307       -1.021916
H           0.757178       -1.840346       -0.029811
C           0.726266        0.569302       -0.237098
H           1.687983       -0.298967        0.443919
H           1.864585        1.014936       -1.838918
H          -0.742689       -1.832581        1.681425
C          -0.559049       -1.358113       -0.398882
H          -0.066936        2.904379       -0.854666
C          -0.478172        1.573137        1.481887
H          -1.461735       -1.544401        1.627149
C          -1.287652        0.447518        1.061797
H          -0.242063        2.189957        1.613921
C           0.456732        1.986132       -0.319605
H          -0.241610        0.630802       -1.462425
H          -1.479241       -1.573961       -0.265338
16
reaction_000_gen_9_frame_0743
H           0.195645       -1.816798       -1.506567
C           0.819978       -1.049272       -1.008919
H           0.757238       -1.812378       -0.089467
C           0.687159        0.548547       -0.223029
H           1.646751       -0.262722        0.465577
H           1.859515        1.075379       -1.836196
H          -0.797582       -1.817964        1.696945
C          -0.568079       -1.405341       -0.390840
H          -0.075032        2.894425       -0.797835
C          -0.439746        1.542239        1.444924
H          -1.455079       -1.577609        1.628265
C          -1.214585        0.406065        1.027735
H          -0.177275        2.199180        1.567061
C           0.461093        2.014601       -0.330118
H          -0.213757        0.644518       -1.411541
H          -1.486245       -1.582870       -0.235996
16
reaction_000_gen_9_frame_0744
H           0.142569       -1.810313       -1.505860
C           0.826311       -1.044078       -0.984768
H           0.760201       -1.802668       -0.093369
C           0.682431        0.533387       -0.219987
H           1.655713       -0.219032        0.411496
H           1.860877        1.094968       -1.808379
H          -0.800498       -1.786827        1.693494
C          -0.568937       -1.474112       -0.391335
H          -0.051481        2.857045       -0.838004
C          -0.459604        1.582518        1.513564
H          -1.373938       -1.583535        1.625734
C          -1.226580        0.435330        1.034129
H          -0.207864        2.204204        1.571368
C           0.434210        1.995697       -0.319603
H          -0.223119        0.674664       -1.417475
H          -1.450293       -1.657248       -0.271006
16
reaction_000_gen_9_frame_0745
H           0.152273       -1.813767       -1.504699
C           0.853489       -0.977929       -1.015209
H           0.756117       -1.793009       -0.059134
C           0.702175        0.507173       -0.245590
H           1.649055       -0.164309        0.397151
H           1.911983        1.041137       -1.809685
H          -0.827035       -1.817059        1.700515
C          -0.608166       -1.476274       -0.403807
H          -0.064731        2.861027       -0.863930
C          -0.501041        1.553824        1.485216
H          -1.306384       -1.605701        1.687668
C          -1.194508        0.420059        1.053450
H          -0.204734        2.185418        1.607615
C           0.418077        2.004185       -0.294111
H          -0.262983        0.710450       -1.441101
H          -1.473589       -1.635223       -0.294349
16
reaction_000_gen_9_frame_0746
H           0.141503       -1.848124       -1.504405
C           0.818898       -0.971882       -1.042096
H           0.766447       -1.786801       -0.082043
C           0.756910        0.508357       -0.237988
H           1.660103       -0.187048        0.376627
H           1.874748        1.046000       -1.780939
H          -0.780039       -1.809364        1.644173
C          -0.554495       -1.450471       -0.373944
H          -0.082416        2.845628       -0.850071
C          -0.482028        1.523339        1.474391
H          -1.313912       -1.597959        1.676738
C          -1.192134        0.378687        1.123544
H          -0.232614        2.275354        1.653071
C           0.387217        1.980568       -0.357952
H          -0.214169        0.707098       -1.442981
H          -1.554021       -1.613383       -0.276124
16
reaction_000_gen_9_frame_0747
H           0.138763       -1.871748       -1.475065
C           0.807881       -0.951776       -0.999058
H           0.812906       -1.761215       -0.115888
C           0.749685        0.572352       -0.164188
H           1.646449       -0.197976        0.323984
H           1.859717        1.052651       -1.866258
H          -0.824532       -1.871024        1.616965
C          -0.512109       -1.431985       -0.353974
H          -0.132008        2.848459       -0.864925
C          -0.495456        1.522178        1.481755
H          -1.305191       -1.638061        1.725112
C          -1.174785        0.287508        1.112664
H          -0.256787        2.291654        1.692477
C           0.352415        1.939026       -0.383034
H          -0.149597        0.797995       -1.438899
H          -1.517351       -1.588037       -0.291667
16
reaction_000_gen_9_frame_0748
H           0.139223       -1.893013       -1.505542
C           0.801114       -0.988123       -1.038805
H           0.808003       -1.738198       -0.097533
C           0.781813        0.603867       -0.126197
H           1.619303       -0.149368        0.272399
H           1.795306        1.037587       -1.877428
H          -0.786694       -1.871708        1.601510
C          -0.555618       -1.326880       -0.334984
H          -0.109467        2.843937       -0.842422
C          -0.486615        1.457393        1.491033
H          -1.298448       -1.659665        1.703676
C          -1.161315        0.287738        1.120407
H          -0.224475        2.303298        1.682843
C           0.328685        1.932044       -0.307998
H          -0.118635        0.782312       -1.463155
H          -1.532179       -1.621220       -0.277803
16
reaction_000_gen_9_frame_0749
H           0.153970       -1.869100       -1.501331
C           0.762253       -0.903270       -1.032597
H           0.776842       -1.765748       -0.103753
C           0.762700        0.588649       -0.114228
H           1.580435       -0.174450        0.302939
H           1.809627        1.049090       -1.872884
H          -0.794243       -1.945677        1.557140
C          -0.592557       -1.318148       -0.308559
H          -0.096559        2.808972       -0.900855
C          -0.450369        1.539332        1.494831
H          -1.253242       -1.634877        1.701904
C          -1.184449        0.257948        1.119421
H          -0.249102        2.273340        1.677645
C           0.330996        1.949874       -0.324180
H          -0.088857        0.778477       -1.408338
H          -1.467445       -1.634412       -0.287155
16
reaction_000_gen_9_frame_0750
H           0.206821       -1.891588       -1.479368
C           0.775200       -0.918032       -1.063920
H           0.825562       -1.787074       -0.111284
C           0.808971        0.593338       -0.092784
H           1.560330       -0.172774        0.330572
H           1.794442        1.051304       -1.811524
H          -0.810786       -1.960786        1.567649
C          -0.625735       -1.313303       -0.319274
H          -0.125433        2.851705       -0.880723
C          -0.481545        1.549097        1.463718
H          -1.246901       -1.625065        1.711478
C          -1.215632        0.248417        1.060256
H          -0.235137        2.258886        1.677485
C           0.359632        2.021813       -0.349275
H          -0.086193        0.751161       -1.384848
H          -1.503593       -1.657100       -0.318158
16
reaction_000_gen_9_frame_0751
H           0.202662       -1.917804       -1.461088
C           0.771775       -0.896369       -1.070513
H           0.811729       -1.822125       -0.068112
C           0.809103        0.634508       -0.110149
H           1.509943       -0.192155        0.266040
H           1.810136        1.077772       -1.868097
H          -0.803898       -1.933044        1.610690
C          -0.612156       -1.321158       -0.316531
H          -0.110984        2.893111       -0.915525
C          -0.476013        1.525752        1.513977
H          -1.204711       -1.635014        1.725632
C          -1.155220        0.166609        1.025028
H          -0.250841        2.300337        1.667656
C           0.380724        2.028281       -0.326732
H          -0.163746        0.769688       -1.368135
H          -1.518503       -1.678390       -0.304141
16
reaction_000_gen_9_frame_0752
H           0.234499       -1.944412       -1.485941
C           0.750196       -0.890887       -1.107206
H           0.828185       -1.860415       -0.077620
C           0.795163        0.609385       -0.066850
H           1.500428       -0.169787        0.254071
H           1.810430        1.125502       -1.825124
H          -0.766287       -1.915147        1.656609
C          -0.561886       -1.290312       -0.276106
H          -0.145067        2.927941       -0.934272
C          -0.510593        1.506192        1.496676
H          -1.232774       -1.655339        1.726581
C          -1.126528        0.162588        0.999945
H          -0.260669        2.285268        1.676052
C           0.389956        2.006985       -0.344400
H          -0.142205        0.767329       -1.386850
H          -1.562850       -1.664891       -0.305564
16
reaction_000_gen_9_frame_0753
H           0.265749       -1.911716       -1.539550
C           0.803240       -0.849482       -1.098024
H           0.853742       -1.847672       -0.097044
C           0.789780        0.612098       -0.063407
H           1.521535       -0.195470        0.250980
H           1.743218        1.074465       -1.799951
H          -0.776748       -1.945235        1.638015
C          -0.620230       -1.292760       -0.266429
H          -0.158035        2.982596       -0.919611
C          -0.531376        1.447839        1.538318
H          -1.275286       -1.637262        1.710784
C          -1.103433        0.145000        0.990731
H          -0.204341        2.274704        1.686855
C           0.383762        2.006476       -0.324485
H          -0.132850        0.792875       -1.353510
H          -1.558727       -1.656455       -0.353673
16
reaction_000_gen_9_frame_0754
H           0.255706       -1.905703       -1.567343
C           0.830304       -0.877542       -1.139175
H           0.884573       -1.871963       -0.086417
C           0.823744        0.622303       -0.036061
H           1.505875       -0.211541        0.222694
H           1.725690        1.078783       -1.786848
H          -0.793029       -1.931734        1.607144
C          -0.590930       -1.274001       -0.266158
H          -0.160139        2.979985       -0.945873
C          -0.514210        1.442757        1.534898
H          -1.282141       -1.626525        1.767021
C          -1.158801        0.157600        0.998055
H          -0.189964        2.217910        1.679438
C           0.381547        2.025982       -0.294637
H          -0.162907        0.833284       -1.351389
H          -1.555317       -1.659594       -0.335349
16
reaction_000_gen_9_frame_0755
H           0.197443       -1.839160       -1.576792
C           0.879147       -0.858500       -1.112250
H           0.933302       -1.886773       -0.045479
C           0.858577        0.612936       -0.000514
H           1.488607       -0.281094        0.238430
H           1.751113        1.059595       -1.801945
H          -0.831861       -1.906864        1.637411
C          -0.539565       -1.280392       -0.294651
H          -0.163166        2.937735       -0.983921
C          -0.544279        1.402542        1.491246
H          -1.268155       -1.588844        1.760517
C          -1.182841        0.162699        0.959443
H          -0.205141        2.241080        1.663445
C           0.369284        2.051373       -0.265760
H          -0.142093        0.813611       -1.340479
H          -1.600373       -1.639941       -0.328696
16
reaction_000_gen_9_frame_0756
H           0.223051       -1.789163       -1.585520
C           0.926248       -0.833817       -1.170126
H           0.950287       -1.895826       -0.016855
C           0.867151        0.636108        0.000020
H           1.498129       -0.331135        0.256000
H           1.754742        1.054345       -1.801123
H          -0.842770       -1.897611        1.597093
C          -0.543578       -1.239561       -0.301786
H          -0.144937        2.910553       -0.979398
C          -0.596000        1.440958        1.541421
H          -1.281067       -1.612052        1.724132
C          -1.194182        0.086699        0.976155
H          -0.294494        2.258243        1.695099
C           0.349711        2.022504       -0.246889
H          -0.115056        0.810872       -1.394966
H          -1.557234       -1.621117       -0.293257
16
reaction_000_gen_9_frame_0757
H           0.248855       -1.807632       -1.545194
C           0.907973       -0.850754       -1.170350
H           0.954942       -1.853213        0.014767
C           0.828419        0.575336       -0.021549
H           1.473911       -0.301249        0.257412
H           1.791029        1.065374       -1.845329
H          -0.784011       -1.867430        1.569645
C          -0.561834       -1.170197       -0.343965
H          -0.125193        2.944522       -0.985624
C          -0.613124        1.389089        1.560602
H          -1.249888       -1.632699        1.758682
C          -1.230040        0.045885        1.017602
H          -0.324001        2.205766        1.664635
C           0.348100        2.037397       -0.234143
H          -0.159168        0.799224       -1.380598
H          -1.505968       -1.579419       -0.316593
16
reaction_000_gen_9_frame_0758
H           0.288319       -1.821412       -1.510695
C           0.907434       -0.888381       -1.109104
H           0.952347       -1.839544        0.045866
C           0.865140        0.596716        0.027652
H           1.465565       -0.335481        0.252190
H           1.756389        1.091762       -1.804200
H          -0.774680       -1.847697        1.620646
C          -0.582719       -1.193981       -0.421237
H          -0.098524        2.909810       -0.982819
C          -0.605524        1.396556        1.524484
H          -1.279931       -1.633775        1.711165
C          -1.181483        0.035903        0.983462
H          -0.366680        2.255162        1.661187
C           0.334679        2.066668       -0.268398
H          -0.113819        0.786506       -1.394665
H          -1.566513       -1.578811       -0.335534
16
reaction_000_gen_9_frame_0759
H           0.281584       -1.835574       -1.494916
C           0.955852       -0.883537       -1.095722
H           0.890803       -1.846367        0.038579
C           0.864188        0.575254       -0.008780
H           1.513968       -0.304036        0.252122
H           1.784705        1.111422       -1.791820
H          -0.751419       -1.815553        1.641408
C          -0.589927       -1.204676       -0.418498
H          -0.146878        2.887552       -0.904962
C          -0.572082        1.369876        1.488232
H          -1.280125       -1.572339        1.698904
C          -1.184606       -0.006470        1.004790
H          -0.358911        2.217732        1.650011
C           0.354044        2.041671       -0.284795
H          -0.175224        0.825125       -1.435745
H          -1.585972       -1.560080       -0.338809
16
reaction_000_gen_9_frame_0760
H           0.240308       -1.835301       -1.509400
C           0.967119       -0.914487       -1.104511
H           0.936675       -1.813817        0.035833
C           0.904570        0.585268        0.007946
H           1.490365       -0.293275        0.277526
H           1.722722        1.113137       -1.820953
H          -0.760306       -1.814242        1.602594
C          -0.565019       -1.183973       -0.414931
H          -0.117017        2.865781       -0.830255
C          -0.599608        1.323697        1.499488
H          -1.306211       -1.566893        1.673056
C          -1.197278       -0.005345        1.006551
H          -0.349113        2.210301        1.679529
C           0.359714        2.031380       -0.313853
H          -0.132577        0.832278       -1.455758
H          -1.594345       -1.534509       -0.332862
16
reaction_000_gen_9_frame_0761
H           0.251403       -1.877253       -1.510511
C           0.984533       -0.936127       -1.126147
H           0.883514       -1.787666       -0.005611
C           0.952626        0.582734        0.020233
H           1.418254       -0.337762        0.307350
H           1.714992        1.132502       -1.783291
H          -0.751253       -1.773436        1.545391
C          -0.583624       -1.132223       -0.470306
H          -0.116640        2.882492       -0.825337
C          -0.625278        1.360836        1.512701
H          -1.289702       -1.558361        1.657948
C          -1.168436       -0.039543        0.977471
H          -0.298632        2.249183        1.698407
C           0.351974        1.974014       -0.266985
H          -0.142158        0.787787       -1.414957
H          -1.581574       -1.527175       -0.316357
16
reaction_000_gen_9_frame_0762
H           0.276572       -1.810888       -1.463138
C           1.008556       -0.891958       -1.118923
H           0.891399       -1.846399       -0.058165
C           0.944074        0.610255        0.014090
H           1.426498       -0.365563        0.308086
H           1.700700        1.146272       -1.776622
H          -0.722194       -1.732231        1.475119
C          -0.644171       -1.121779       -0.436815
H          -0.121233        2.878759       -0.838574
C          -0.595527        1.324479        1.484304
H          -1.362973       -1.518854        1.684415
C          -1.148182       -0.105028        0.998085
H          -0.262676        2.240430        1.694131
C           0.325896        1.919199       -0.229711
H          -0.127896        0.782414       -1.418702
H          -1.588843       -1.509107       -0.317580
16
reaction_000_gen_9_frame_0763
H           0.302909       -1.815810       -1.481860
C           1.067717       -0.888115       -1.111228
H           0.916249       -1.828375       -0.089606
C           0.923416        0.616337       -0.026572
H           1.410502       -0.336372        0.340591
H           1.709036        1.178433       -1.778278
H          -0.757512       -1.755616        1.501362
C          -0.661522       -1.160663       -0.428725
H          -0.127519        2.883309       -0.830662
C          -0.533651        1.352208        1.515185
H          -1.388564       -1.514907        1.659220
C          -1.140441       -0.101748        0.996386
H          -0.277622        2.250789        1.694285
C           0.288569        1.893417       -0.200989
H          -0.114535        0.750522       -1.412743
H          -1.617032       -1.523409       -0.346366
16
reaction_000_gen_9_frame_0764
H           0.305767       -1.827642       -1.450445
C           1.102071       -0.897198       -1.194530
H           0.886291       -1.840201       -0.115435
C           0.946244        0.615692       -0.061531
H           1.427404       -0.377161        0.384820
H           1.720453        1.176095       -1.817065
H          -0.716021       -1.683268        1.483586
C          -0.676596       -1.204165       -0.460107
H          -0.175187        2.887741       -0.842605
C          -0.582815        1.372346        1.568189
H          -1.304098       -1.509014        1.670853
C          -1.140534       -0.102377        0.995180
H          -0.286277        2.253719        1.706762
C           0.265445        1.898680       -0.153653
H          -0.149587        0.751614       -1.362273
H          -1.622559       -1.514861       -0.351746
16
reaction_000_gen_9_frame_0765
H           0.302432       -1.836226       -1.445527
C           1.164892       -0.853798       -1.178474
H           0.857991       -1.808386       -0.081765
C           0.939918        0.605263       -0.114670
H           1.461254       -0.406406        0.376826
H           1.690322        1.220107       -1.831168
H          -0.681445       -1.675783        1.508058
C          -0.662530       -1.201284       -0.476012
H          -0.173073        2.940162       -0.852649
C          -0.581760        1.355417        1.587585
H          -1.307771       -1.484179        1.717321
C          -1.181266       -0.102648        1.019185
H          -0.291595        2.199662        1.650726
C           0.246337        1.876914       -0.169971
H          -0.151346        0.689679       -1.370043
H          -1.632361       -1.518494       -0.339423
16
reaction_000_gen_9_frame_0766
H           0.273886       -1.878709       -1.453172
C           1.170362       -0.867612       -1.166960
H           0.852474       -1.790162       -0.091085
C           0.961540        0.584186       -0.134259
H           1.400966       -0.406600        0.423940
H           1.694814        1.198902       -1.819558
H          -0.719535       -1.664892        1.497383
C          -0.627139       -1.175111       -0.474832
H          -0.168881        2.920809       -0.853797
C          -0.580232        1.397191        1.606823
H          -1.303648       -1.505143        1.723404
C          -1.112596       -0.117571        1.011032
H          -0.310104        2.165943        1.664772
C           0.248385        1.911484       -0.221205
H          -0.157995        0.736179       -1.354070
H          -1.622296       -1.508894       -0.358415
16
reaction_000_gen_9_frame_0767
H           0.281085       -1.917649       -1.420783
C           1.181275       -0.891358       -1.169094
H           0.823642       -1.807651       -0.130442
C           0.983882        0.610664       -0.070062
H           1.414342       -0.416735        0.350105
H           1.635990        1.169984       -1.828109
H          -0.671351       -1.752895        1.463670
C          -0.622669       -1.165630       -0.459161
H          -0.185240        2.963010       -0.832732
C          -0.587870        1.458127        1.542572
H          -1.314367       -1.475039        1.776403
C          -1.097373       -0.118942        0.985058
H          -0.373165        2.160780        1.654036
C           0.254458        1.922299       -0.215064
H          -0.126285        0.716152       -1.342383
H          -1.596354       -1.455118       -0.304016
16
reaction_000_gen_9_frame_0768
H           0.287351       -1.931942       -1.425563
C           1.168517       -0.869566       -1.182620
H           0.818906       -1.822217       -0.106013
C           0.992910        0.606931       -0.108292
H           1.365100       -0.411889        0.325239
H           1.681857        1.186624       -1.796676
H          -0.716684       -1.742175        1.468235
C          -0.658686       -1.195654       -0.466590
H          -0.137599        2.937093       -0.835553
C          -0.610519        1.450543        1.569674
H          -1.312101       -1.419868        1.749011
C          -1.075952       -0.111694        0.991436
H          -0.385402        2.188129        1.626976
C           0.287766        1.908424       -0.208657
H          -0.124338        0.726103       -1.333383
H          -1.581127       -1.498844       -0.267225
16
reaction_000_gen_9_frame_0769
H           0.267755       -1.932529       -1.393211
C           1.193955       -0.900101       -1.152274
H           0.819204       -1.795246       -0.128941
C           1.029104        0.546511       -0.099508
H           1.329329       -0.448214        0.300189
H           1.670224        1.217326       -1.794557
H          -0.684738       -1.721542        1.451323
C          -0.650894       -1.159081       -0.482354
H          -0.119317        2.970512       -0.866173
C          -0.575667        1.410758        1.555845
H          -1.367979       -1.382763        1.783868
C          -1.047845       -0.102427        0.938319
H          -0.406994        2.166658        1.626492
C           0.255953        1.889459       -0.202810
H          -0.145316        0.708408       -1.277649
H          -1.566774       -1.467729       -0.258559
16
reaction_000_gen_9_frame_0770
H           0.256695       -1.909935       -1.412247
C           1.206174       -0.921025       -1.148948
H           0.761202       -1.733846       -0.130624
C           1.020820        0.552524       -0.112767
H           1.326213       -0.452736        0.322345
H           1.711838        1.204486       -1.832312
H          -0.649329       -1.740842        1.432882
C          -0.716550       -1.113602       -0.454339
H          -0.115699        2.987206       -0.845201
C          -0.540597        1.416168        1.519211
H          -1.387080       -1.379991        1.801366
C          -1.082029       -0.122297        0.891222
H          -0.327441        2.190951        1.644551
C           0.274330        1.855828       -0.171043
H          -0.188246        0.676425       -1.269776
H          -1.550303       -1.509314       -0.234321
16
reaction_000_gen_9_frame_0771
H           0.250222       -1.860147       -1.390957
C           1.168958       -0.932723       -1.178330
H           0.817333       -1.735781       -0.130631
C           0.982785        0.558331       -0.136466
H           1.366569       -0.470147        0.336791
H           1.711264        1.181221       -1.819542
H          -0.701330       -1.746762        1.395490
C          -0.659647       -1.092357       -0.488206
H          -0.134582        2.974141       -0.885965
C          -0.535720        1.385106        1.520993
H          -1.344437       -1.378879        1.847651
C          -1.075119       -0.110591        0.903114
H          -0.351033        2.223893        1.701927
C           0.275716        1.853671       -0.190633
H          -0.196298        0.643848       -1.287777
H          -1.574680       -1.492823       -0.197459
16
reaction_000_gen_9_frame_0772
H           0.227284       -1.886820       -1.408281
C           1.178133       -0.965698       -1.217974
H           0.816462       -1.700201       -0.223894
C           1.022381        0.531014       -0.086006
H           1.368127       -0.501592        0.331158
H           1.715586        1.186549       -1.793152
H          -0.708953       -1.761404        1.332552
C          -0.717526       -1.074997       -0.527908
H          -0.132730        3.019683       -0.878594
C          -0.541096        1.391462        1.561596
H          -1.364978       -1.376473        1.834873
C          -1.025551       -0.088994        0.943810
H          -0.330833        2.222713        1.750896
C           0.217201        1.834174       -0.126503
H          -0.154402        0.648956       -1.277137
H          -1.569105       -1.478372       -0.215438
16
reaction_000_gen_9_frame_0773
H           0.270234       -1.857257       -1.391275
C           1.179913       -0.990388       -1.263011
H           0.830070       -1.687071       -0.272257
C           1.024684        0.482042       -0.046153
H           1.323860       -0.496693        0.367154
H           1.700662        1.178636       -1.796623
H          -0.718968       -1.763276        1.329751
C          -0.722730       -1.067756       -0.544945
H          -0.149050        3.021014       -0.926781
C          -0.524738        1.383858        1.569955
H          -1.299857       -1.350267        1.855841
C          -1.051433       -0.121403        1.011508
H          -0.349197        2.197265        1.711548
C           0.197728        1.851019       -0.152669
H          -0.152492        0.693764       -1.276634
H          -1.558687       -1.473485       -0.175407
16
reaction_000_gen_9_frame_0774
H           0.250553       -1.808254       -1.406084
C           1.180757       -1.055632       -1.242126
H           0.793033       -1.642140       -0.325940
C           1.041887        0.536010       -0.048585
H           1.329951       -0.497569        0.365376
H           1.700469        1.133628       -1.830744
H          -0.699031       -1.823968        1.355929
C          -0.720289       -1.060264       -0.559678
H          -0.139874        3.002147       -0.900420
C          -0.549770        1.388600        1.605665
H          -1.324963       -1.339401        1.887671
C          -1.036425       -0.103898        1.085183
H          -0.328587        2.181411        1.663706
C           0.225250        1.846581       -0.163077
H          -0.126544        0.691398       -1.312531
H          -1.596418       -1.448650       -0.174346
16
reaction_000_gen_9_frame_0775
H           0.231576       -1.783516       -1.421597
C           1.145529       -1.094327       -1.250344
H           0.831847       -1.702165       -0.354757
C           1.067345        0.486078       -0.075754
H           1.336277       -0.452757        0.361288
H           1.757043        1.178963       -1.811183
H          -0.720131       -1.836893        1.360528
C          -0.732236       -1.018434       -0.572121
H          -0.109361        2.985512       -0.866035
C          -0.549977        1.374546        1.580910
H          -1.328945       -1.293845        1.888847
C          -1.072979       -0.095478        1.111671
H          -0.361071        2.138200        1.659111
C           0.219614        1.859655       -0.161471
H          -0.116398        0.732243       -1.288834
H          -1.598133       -1.477780       -0.160258
16
reaction_000_gen_9_frame_0776
H           0.241801       -1.764372       -1.416182
C           1.163044       -1.085274       -1.231622
H           0.843263       -1.677740       -0.336096
C           1.068108        0.524089       -0.076287
H           1.320606       -0.472770        0.353493
H           1.787308        1.228613       -1.790613
H          -0.733489       -1.873886        1.374503
C          -0.743699       -1.038772       -0.573259
H          -0.127880        3.004983       -0.822231
C          -0.545080        1.418983        1.593675
H          -1.287769       -1.294765        1.906422
C          -1.081340       -0.096863        1.113955
H          -0.350100        2.109474        1.631904
C           0.223959        1.825776       -0.148188
H          -0.159485        0.697117       -1.379500
H          -1.619247       -1.504592       -0.199974
16
reaction_000_gen_9_frame_0777
H           0.230484       -1.800185       -1.369728
C           1.209198       -1.082552       -1.168876
H           0.883917       -1.684542       -0.297178
C           1.040436        0.557607       -0.106946
H           1.243553       -0.511139        0.353588
H           1.747124        1.219303       -1.793446
H          -0.720173       -1.890766        1.338137
C          -0.686807       -1.042545       -0.582061
H          -0.154067        3.051364       -0.819851
C          -0.532345        1.376101        1.561949
H          -1.277510       -1.242622        1.870480
C          -1.083182       -0.090511        1.130700
H          -0.348764        2.087921        1.629658
C           0.256814        1.796174       -0.223244
H          -0.184242        0.693038       -1.333469
H          -1.624436       -1.436647       -0.189712
16
reaction_000_gen_9_frame_0778
H           0.244366       -1.813547       -1.425471
C           1.197004       -1.077486       -1.111832
H           0.864398       -1.633776       -0.270164
C           1.074604        0.566806       -0.091160
H           1.241645       -0.525646        0.366441
H           1.731785        1.214055       -1.765296
H          -0.723911       -1.877937        1.314253
C          -0.700048       -1.024417       -0.634395
H          -0.122156        3.097129       -0.793310
C          -0.511717        1.360539        1.559412
H          -1.238409       -1.216044        1.925282
C          -1.045550       -0.132584        1.113071
H          -0.360056        2.111078        1.624285
C           0.208923        1.725791       -0.205687
H          -0.168481        0.724604       -1.361895
H          -1.692397       -1.498564       -0.243532
16
reaction_000_gen_9_frame_0779
H           0.209295       -1.841797       -1.357972
C           1.173951       -1.107497       -1.108388
H           0.880341       -1.578237       -0.250015
C           1.131302        0.573403       -0.048524
H           1.218815       -0.537450        0.340370
H           1.722896        1.237658       -1.728279
H          -0.759776       -1.904851        1.301890
C          -0.710560       -1.000305       -0.640629
H          -0.124045        3.103724       -0.806935
C          -0.514170        1.384480        1.521594
H          -1.185912       -1.203110        1.866250
C          -1.026209       -0.169971        1.119472
H          -0.363098        2.096765        1.599113
C           0.239577        1.713105       -0.199638
H          -0.222493        0.737242       -1.374387
H          -1.669916       -1.503159       -0.233922
16
reaction_000_gen_9_frame_0780
H           0.208380       -1.797268       -1.350876
C           1.187485       -1.105218       -1.026996
H           0.876277       -1.550512       -0.265003
C           1.141087        0.568635       -0.092587
H           1.213801       -0.504821        0.326190
H           1.703698        1.274897       -1.727059
H          -0.733875       -1.957270        1.290696
C          -0.713634       -1.085508       -0.621622
H          -0.142415        3.047360       -0.818748
C          -0.504878        1.407670        1.504125
H          -1.208930       -1.173734        1.865724
C          -0.978409       -0.193568        1.143684
H          -0.388356        2.142159        1.608671
C           0.196428        1.656680       -0.225093
H          -0.243519        0.765151       -1.404572
H          -1.613139       -1.494653       -0.206536
16
reaction_000_gen_9_frame_0781
H           0.212878       -1.774478       -1.338196
C           1.170899       -1.106147       -1.034921
H           0.847244       -1.588001       -0.271730
C           1.111460        0.549922       -0.031934
H           1.245857       -0.498586        0.331089
H           1.718243        1.333792       -1.740710
H          -0.703440       -1.955260        1.324423
C          -0.746749       -1.097000       -0.608121
H          -0.125664        3.027012       -0.808350
C          -0.486300        1.435433        1.488329
H          -1.196600       -1.158505        1.837945
C          -0.986525       -0.208512        1.099666
H          -0.380587        2.161360        1.620660
C           0.186399        1.657696       -0.238310
H          -0.258803        0.691888       -1.392375
H          -1.608312       -1.470613       -0.237466
16
reaction_000_gen_9_frame_0782
H           0.193420       -1.787323       -1.370134
C           1.196390       -1.144099       -1.053893
H           0.815728       -1.550692       -0.302318
C           1.135473        0.514848       -0.010179
H           1.258175       -0.495286        0.359854
H           1.745671        1.379055       -1.720871
H          -0.758778       -2.009814        1.370142
C          -0.749536       -1.049106       -0.583243
H          -0.103156        3.040711       -0.836674
C          -0.447207        1.359195        1.459159
H          -1.228472       -1.167811        1.823355
C          -1.046404       -0.182493        1.119318
H          -0.354058        2.183408        1.576743
C           0.195692        1.682373       -0.245678
H          -0.254872        0.697231       -1.369331
H          -1.598064       -1.470196       -0.216252
16
reaction_000_gen_9_frame_0783
H           0.169426       -1.790114       -1.339259
C           1.168023       -1.125202       -1.062002
H           0.828257       -1.613621       -0.305086
C           1.150990        0.476779       -0.008873
H           1.290291       -0.463275        0.348414
H           1.689517        1.427950       -1.685939
H          -0.726163       -2.026662        1.381042
C          -0.800523       -1.082369       -0.585298
H          -0.108290        3.018984       -0.802475
C          -0.436904        1.330382        1.496600
H          -1.254426       -1.138985        1.809677
C          -1.051685       -0.137190        1.072403
H          -0.327678        2.202044        1.546394
C           0.196262        1.705449       -0.231239
H          -0.241429        0.701486       -1.364368
H          -1.545668       -1.485655       -0.269991
16
reaction_000_gen_9_frame_0784
H           0.195670       -1.834365       -1.356181
C           1.117610       -1.140805       -1.008191
H           0.875018       -1.596418       -0.322233
C           1.194168        0.505942        0.005913
H           1.323203       -0.474394        0.356787
H           1.689768        1.426388       -1.745388
H          -0.754083       -2.037486        1.389518
C          -0.796212       -1.054285       -0.590090
H          -0.115843        2.999263       -0.751588
C          -0.449916        1.327201        1.483870
H          -1.315449       -1.124267        1.811895
C          -1.006977       -0.118013        1.024219
H          -0.383655        2.180927        1.535599
C           0.217542        1.719181       -0.221208
H          -0.321867        0.710075       -1.354827
H          -1.468975       -1.488944       -0.258097
16
reaction_000_gen_9_frame_0785
H           0.247043       -1.814403       -1.365570
C           1.087929       -1.144175       -0.983424
H           0.852994       -1.607841       -0.305783
C           1.151785        0.595340        0.000115
H           1.319225       -0.471611        0.334801
H           1.723269        1.443913       -1.775940
H          -0.787781       -2.068172        1.367035
C          -0.786580       -1.091456       -0.627849
H          -0.098294        2.960802       -0.766709
C          -0.496369        1.343338        1.474687
H          -1.297634       -1.102192        1.833650
C          -1.013357       -0.131222        1.036028
H          -0.385139        2.160252        1.511914
C           0.214376        1.669937       -0.192857
H          -0.295023        0.732600       -1.329324
H          -1.436444       -1.475110       -0.210774
16
reaction_000_gen_9_frame_0786
H           0.228021       -1.821166       -1.311817
C           1.093900       -1.122133       -0.978545
H           0.817072       -1.609588       -0.287943
C           1.131490        0.582223        0.041483
H           1.329517       -0.464658        0.298937
H           1.716786        1.417327       -1.759455
H          -0.780872       -2.059018        1.360649
C          -0.801926       -1.079708       -0.643506
H          -0.091479        2.930693       -0.777229
C          -0.485678        1.327891        1.459344
H          -1.306338       -1.105505        1.866511
C          -0.955447       -0.192197        1.004724
H          -0.379010        2.201675        1.475020
C           0.223319        1.669066       -0.203796
H          -0.250188        0.781095       -1.329492
H          -1.489166       -1.455998       -0.214886
16
reaction_000_gen_9_frame_0787
H           0.244092       -1.792033       -1.294574
C           1.087899       -1.121315       -0.946396
H           0.835818       -1.609306       -0.300445
C           1.073496        0.563302        0.063893
H           1.328259       -0.410574        0.316529
H           1.703120        1.384386       -1.784416
H          -0.796484       -2.040517        1.301558
C          -0.813408       -1.118872       -0.629982
H          -0.078277        2.923473       -0.788630
C          -0.463685        1.368026        1.419722
H          -1.259474       -1.078568        1.894314
C          -0.884389       -0.207662        1.066959
H          -0.381615        2.171384        1.467057
C           0.215291        1.614030       -0.240087
H          -0.292686        0.787839       -1.321722
H          -1.517958       -1.433593       -0.223782
16
reaction_000_gen_9_frame_0788
H           0.280884       -1.748493       -1.281415
C           1.021177       -1.127591       -0.959570
H           0.893284       -1.644475       -0.359428
C           1.065886        0.553494        0.070028
H           1.350766       -0.383020        0.300807
H           1.714300        1.369178       -1.764732
H          -0.813852       -2.063679        1.279145
C          -0.910279       -1.179583       -0.656914
H          -0.038735        2.905214       -0.770633
C          -0.454531        1.353236        1.413744
H          -1.293320       -1.027218        1.885639
C          -0.845419       -0.256644        1.108445
H          -0.372369        2.170078        1.497225
C           0.204364        1.694894       -0.245687
H          -0.244914        0.846771       -1.302609
H          -1.557242       -1.462160       -0.214044
16
reaction_000_gen_9_frame_0789
H           0.275844       -1.729247       -1.268642
C           0.964759       -1.093942       -0.949960
H           0.930372       -1.622098       -0.289339
C           1.081721        0.570125        0.026102
H           1.378464       -0.389506        0.283369
H           1.715703        1.322308       -1.772943
H          -0.821911       -2.051878        1.284610
C          -0.874138       -1.204394       -0.670380
H          -0.050041        2.882087       -0.739395
C          -0.462785        1.355531        1.428954
H          -1.268296       -1.005916        1.862628
C          -0.913201       -0.263738        1.128698
H          -0.390110        2.141926        1.507735
C           0.207837        1.740138       -0.305547
H          -0.247453        0.827077       -1.304714
H          -1.526766       -1.478473       -0.221178
16
reaction_000_gen_9_frame_0790
H           0.244192       -1.691514       -1.301142
C           0.989168       -1.125637       -0.934161
H           0.925672       -1.631537       -0.304639
C           1.089214        0.558072        0.047253
H           1.398944       -0.372443        0.268074
H           1.742653        1.328364       -1.739307
H          -0.840861       -2.105826        1.230669
C          -0.870012       -1.218731       -0.664448
H          -0.027245        2.865559       -0.687054
C          -0.497099        1.333985        1.413193
H          -1.243502       -0.958847        1.873073
C          -0.921121       -0.260059        1.159590
H          -0.392477        2.202395        1.471589
C           0.220936        1.729451       -0.259450
H          -0.249953        0.820060       -1.305996
H          -1.568509       -1.473292       -0.267243
16
reaction_000_gen_9_frame_0791
H           0.269020       -1.681865       -1.267637
C           1.009250       -1.141302       -0.920866
H           0.902867       -1.622852       -0.293900
C           1.096549        0.519449        0.002981
H           1.435740       -0.353038        0.260181
H           1.677096        1.317246       -1.766410
H          -0.847436       -2.100962        1.200261
C          -0.906608       -1.189759       -0.680311
H          -0.047852        2.868209       -0.670363
C          -0.501182        1.309048        1.406160
H          -1.165187       -0.974709        1.859643
C          -0.957507       -0.286125        1.113823
H          -0.320371        2.207531        1.495742
C           0.239075        1.715371       -0.159069
H          -0.288183        0.868319       -1.314954
H          -1.595271       -1.454563       -0.265281
16
reaction_000_gen_9_frame_0792
H           0.286947       -1.695964       -1.300480
C           0.959107       -1.140961       -0.925177
H           0.909715       -1.612882       -0.237125
C           1.053100        0.545239       -0.039890
H           1.425878       -0.323706        0.284806
H           1.700766        1.342922       -1.759580
H          -0.830694       -2.113856        1.168263
C          -0.901922       -1.220125       -0.613409
H          -0.047426        2.863379       -0.651469
C          -0.496736        1.353313        1.394472
H          -1.158329       -0.995806        1.830033
C          -0.935733       -0.259120        1.160848
H          -0.325819        2.167012        1.501593
C           0.210989        1.704751       -0.190652
H          -0.271189        0.830911       -1.297480
H          -1.578653       -1.445107       -0.324754
16
reaction_000_gen_9_frame_0793
H           0.325333       -1.720312       -1.289703
C           0.976384       -1.101461       -0.869105
H           0.886592       -1.629585       -0.241796
C           1.049284        0.574688       -0.036153
H           1.456204       -0.278287        0.238138
H           1.699001        1.347079       -1.754037
H          -0.858674       -2.138239        1.172805
C          -0.902601       -1.231829       -0.625379
H          -0.047373        2.886034       -0.675973
C          -0.497728        1.364547        1.422840
H          -1.164390       -0.941929        1.842241
C          -0.952824       -0.259847        1.132850
H          -0.327144        2.167593        1.504049
C           0.231242        1.648472       -0.211953
H          -0.293390        0.765234       -1.275835
H          -1.579915       -1.452160       -0.332990
16
reaction_000_gen_9_frame_0794
H           0.328641       -1.724615       -1.283430
C           1.012292       -1.102829       -0.891457
H           0.886087       -1.660703       -0.243763
C           1.029930        0.626956       -0.004422
H           1.461975       -0.273575        0.197773
H           1.692573        1.334224       -1.731521
H          -0.847222       -2.142362        1.171483
C          -0.861663       -1.235211       -0.636432
H          -0.061123        2.886692       -0.636042
C          -0.546951        1.385992        1.404567
H          -1.158241       -0.984654        1.840097
C          -0.933147       -0.261062        1.122441
H          -0.308365        2.135429        1.464224
C           0.200870        1.664629       -0.215743
H          -0.268111        0.798592       -1.241618
H          -1.627545       -1.447503       -0.316155
16
reaction_000_gen_9_frame_0795
H           0.360391       -1.711305       -1.324619
C           1.000035       -1.122197       -0.853417
H           0.899091       -1.652422       -0.236472
C           1.027563        0.623384       -0.020957
H           1.497141       -0.257499        0.196648
H           1.733942        1.281933       -1.717638
H          -0.850573       -2.118289        1.133640
C          -0.864774       -1.249631       -0.610662
H          -0.099422        2.865657       -0.636370
C          -0.540485        1.401904        1.429497
H          -1.126771       -0.915585        1.849852
C          -0.936212       -0.232771        1.099906
H          -0.340424        2.123568        1.437934
C           0.133128        1.606074       -0.208730
H          -0.289020        0.800485       -1.217871
H          -1.603610       -1.443305       -0.320742
16
reaction_000_gen_9_frame_0796
H           0.356223       -1.703621       -1.312668
C           1.068511       -1.113634       -0.866510
H           0.911879       -1.658907       -0.258666
C           1.009825        0.613684       -0.060734
H           1.542335       -0.284809        0.201745
H           1.726840        1.268327       -1.773450
H          -0.864363       -2.121635        1.105206
C          -0.884907       -1.229085       -0.628491
H          -0.133075        2.801121       -0.620046
C          -0.534365        1.378639        1.464240
H          -1.086942       -0.889960        1.873210
C          -0.974768       -0.234737        1.111213
H          -0.304152        2.165200        1.438842
C           0.136395        1.627855       -0.166163
H          -0.346370        0.859959       -1.197238
H          -1.623067       -1.478396       -0.310491
16
reaction_000_gen_9_frame_0797
H           0.293070       -1.698147       -1.297396
C           1.053618       -1.115108       -0.895465
H           0.858093       -1.626362       -0.252334
C           1.019452        0.592550       -0.017875
H           1.533164       -0.284316        0.180259
H           1.768640        1.276562       -1.819210
H          -0.866500       -2.071775        1.088000
C          -0.890731       -1.181522       -0.639407
H          -0.109571        2.773191       -0.624792
C          -0.537936        1.316682        1.465562
H          -1.043757       -0.828847        1.903708
C          -0.958239       -0.287253        1.084822
H          -0.357144        2.155299        1.428508
C           0.125744        1.642712       -0.161017
H          -0.306929        0.795897       -1.159404
H          -1.580974       -1.459565       -0.283960
16
reaction_000_gen_9_frame_0798
H           0.304329       -1.682354       -1.260233
C           1.021873       -1.125745       -0.865184
H           0.873302       -1.642148       -0.235447
C           1.078696        0.535558       -0.060779
H           1.502584       -0.266288        0.195160
H           1.726309        1.276082       -1.838646
H          -0.851918       -2.016774        1.085598
C          -0.895391       -1.193283       -0.643986
H          -0.085137        2.789409       -0.657395
C          -0.544197        1.306709        1.486776
H          -1.006652       -0.850650        1.940631
C          -0.960479       -0.306151        1.117741
H          -0.356077        2.168670        1.452931
C           0.138272        1.665177       -0.214230
H          -0.316164        0.771621       -1.197928
H          -1.629351       -1.429834       -0.305009
16
reaction_000_gen_9_frame_0799
H           0.309735       -1.688248       -1.265128
C           1.050424       -1.123927       -0.844399
H           0.896203       -1.690901       -0.261226
C           1.079519        0.537323       -0.025294
H           1.470668       -0.325123        0.186807
H           1.739441        1.244512       -1.857153
H          -0.824442       -2.024189        1.063567
C          -0.926160       -1.188941       -0.641043
H          -0.069348        2.805185       -0.660423
C          -0.558290        1.321432        1.528841
H          -1.034668       -0.810070        1.894454
C          -0.951177       -0.274466        1.130649
H          -0.363797        2.164403        1.412685
C           0.126389        1.658432       -0.192417
H          -0.316214        0.813565       -1.188346
H          -1.628283       -1.418988       -0.281573
16
reaction_000_gen_9_frame_0800
H           0.304317       -1.650934       -1.235854
C           1.064837       -1.139173       -0.785129
H           0.901767       -1.725502       -0.261766
C           1.051757        0.588201       -0.072324
H           1.449044       -0.294581        0.173557
H           1.767410        1.239801       -1.832756
H          -0.840262       -2.001622        1.094844
C          -0.941022       -1.193996       -0.613568
H          -0.028785        2.811274       -0.671911
C          -0.561788        1.304991        1.462190
H          -1.029879       -0.818908        1.846891
C          -0.956533       -0.297142        1.182633
H          -0.353142        2.093162        1.401317
C           0.117923        1.708994       -0.185451
H          -0.319229        0.769120       -1.205157
H          -1.626415       -1.393687       -0.297516
16
reaction_000_gen_9_frame_0801
H           0.322176       -1.666346       -1.204365
C           1.001567       -1.161570       -0.749661
H           0.941410       -1.746458       -0.243601
C           1.037998        0.619799       -0.064875
H           1.469798       -0.288279        0.169614
H           1.720668        1.299660       -1.842722
H          -0.816304       -2.025378        1.093884
C          -0.919124       -1.142853       -0.644795
H          -0.086691        2.747572       -0.706140
C          -0.540237        1.306508        1.451405
H          -1.014424       -0.829054        1.844433
C          -0.963039       -0.302777        1.188363
H          -0.368895        2.047846        1.351874
C           0.080960        1.693153       -0.174247
H          -0.295746        0.777729       -1.150090
H          -1.570118       -1.329551       -0.319079
16
reaction_000_gen_9_frame_0802
H           0.359433       -1.662596       -1.195598
C           0.951692       -1.180441       -0.784015
H           0.969909       -1.743028       -0.252869
C           1.039492        0.598635       -0.131973
H           1.482952       -0.294262        0.161537
H           1.729302        1.322818       -1.818514
H          -0.839891       -2.041029        1.109109
C          -0.891928       -1.148077       -0.611396
H          -0.096621        2.762986       -0.673119
C          -0.517500        1.349180        1.466962
H          -1.021302       -0.827533        1.847993
C          -0.987719       -0.258895        1.195798
H          -0.373351        2.013426        1.331976
C           0.064654        1.683039       -0.185019
H          -0.277900        0.738157       -1.148607
H          -1.591220       -1.312379       -0.312263
16
reaction_000_gen_9_frame_0803
H           0.335139       -1.653112       -1.247651
C           0.901577       -1.162016       -0.775850
H           1.036047       -1.729535       -0.235453
C           1.031948        0.596781       -0.178980
H           1.460249       -0.223278        0.185101
H           1.783848        1.307810       -1.818578
H          -0.845034       -2.055450        1.079988
C          -0.881794       -1.185493       -0.579422
H          -0.100331        2.742645       -0.648088
C          -0.501083        1.301032        1.487991
H          -1.014923       -0.777936        1.897524
C          -0.968105       -0.254639        1.181855
H          -0.361201        1.982386        1.354399
C          -0.003303        1.650237       -0.202674
H          -0.288692        0.774906       -1.156983
H          -1.584342       -1.314338       -0.343179
16
reaction_000_gen_9_frame_0804
H           0.346852       -1.705690       -1.287853
C           0.908643       -1.177047       -0.764112
H           1.042504       -1.771820       -0.248696
C           1.017801        0.584512       -0.165163
H           1.394021       -0.166384        0.179719
H           1.776988        1.299031       -1.857022
H          -0.788790       -2.039365        1.088114
C          -0.923102       -1.187708       -0.538414
H          -0.126961        2.784249       -0.636717
C          -0.455537        1.257941        1.509340
H          -1.015399       -0.801554        1.922202
C          -0.928428       -0.249345        1.164803
H          -0.315142        1.957397        1.347100
C          -0.016088        1.673390       -0.199851
H          -0.319519        0.824831       -1.174200
H          -1.597843       -1.282436       -0.339250
16
reaction_000_gen_9_frame_0805
H           0.334846       -1.712108       -1.360568
C           0.869587       -1.150659       -0.750436
H           1.070815       -1.695605       -0.269283
C           0.988969        0.571710       -0.143693
H           1.370852       -0.141395        0.183445
H           1.834610        1.304219       -1.906266
H          -0.753084       -2.040772        1.145330
C          -0.947665       -1.208599       -0.547478
H          -0.128504        2.783411       -0.672119
C          -0.462050        1.212347        1.530635
H          -0.995297       -0.779751        1.975012
C          -0.922741       -0.254014        1.152853
H          -0.344375        1.978966        1.372988
C           0.010017        1.654959       -0.243084
H          -0.326574        0.789556       -1.157605
H          -1.599405       -1.312263       -0.309731
16
reaction_000_gen_9_frame_0806
H           0.376323       -1.733870       -1.345023
C           0.915508       -1.161208       -0.785044
H           1.085810       -1.675763       -0.219063
C           0.951480        0.590747       -0.197629
H           1.329004       -0.121600        0.160506
H           1.878748        1.260186       -1.924983
H          -0.753391       -2.051123        1.195237
C          -0.934499       -1.243161       -0.585795
H          -0.147120        2.810157       -0.647560
C          -0.502881        1.253080        1.477316
H          -1.000311       -0.802733        2.014031
C          -0.917927       -0.238294        1.181058
H          -0.328178        1.986566        1.399374
C          -0.001892        1.665868       -0.246955
H          -0.341062        0.786368       -1.115044
H          -1.609614       -1.325220       -0.360426
16
reaction_000_gen_9_frame_0807
H           0.400064       -1.731684       -1.281175
C           0.936498       -1.168227       -0.772333
H           1.126029       -1.662779       -0.201012
C           0.931303        0.574648       -0.215197
H           1.331283       -0.087657        0.137386
H           1.868089        1.227460       -1.988870
H          -0.815732       -2.074156        1.218436
C          -0.926270       -1.226493       -0.590181
H          -0.106211        2.841271       -0.643683
C          -0.466439        1.288923        1.490754
H          -1.002857       -0.824598        2.007681
C          -0.948992       -0.257908        1.229172
H          -0.317701        1.976642        1.404882
C          -0.025067        1.646148       -0.265514
H          -0.335915        0.762335       -1.160303
H          -1.648084       -1.283923       -0.370044
16
reaction_000_gen_9_frame_0808
H           0.391969       -1.698727       -1.295652
C           0.949617       -1.177459       -0.727675
H           1.103611       -1.662452       -0.162192
C           0.872483        0.581650       -0.210636
H           1.370103       -0.081322        0.135776
H           1.893050        1.223669       -2.007001
H          -0.831600       -2.089597        1.264284
C          -0.937020       -1.187877       -0.576058
H          -0.047133        2.826268       -0.704365
C          -0.473436        1.305826        1.457453
H          -1.010503       -0.817845        2.002109
C          -0.986698       -0.271705        1.216806
H          -0.267125        1.948149        1.435365
C          -0.038026        1.612276       -0.272399
H          -0.341035        0.729879       -1.161732
H          -1.648257       -1.240732       -0.394083
16
reaction_000_gen_9_frame_0809
H           0.387877       -1.676988       -1.328697
C           0.953217       -1.163138       -0.709719
H           1.126855       -1.723014       -0.115606
C           0.890314        0.574150       -0.241282
H           1.349896       -0.058320        0.120596
H           1.870428        1.233992       -2.011620
H          -0.855386       -2.063600        1.243156
C          -0.960592       -1.118924       -0.571032
H          -0.035098        2.818550       -0.671746
C          -0.512297        1.290564        1.474073
H          -0.970223       -0.782776        2.031233
C          -0.998031       -0.272876        1.193756
H          -0.237594        1.919628        1.453430
C          -0.028556        1.587363       -0.276574
H          -0.348015        0.725329       -1.174500
H          -1.632795       -1.289940       -0.415468
16
reaction_000_gen_9_frame_0810
H           0.408713       -1.726263       -1.304553
C           0.918003       -1.093799       -0.669423
H           1.091329       -1.693523       -0.120783
C           0.884934        0.614891       -0.247140
H           1.350638       -0.025413        0.109375
H           1.882648        1.215379       -2.039420
H          -0.844501       -2.041539        1.253984
C          -0.944434       -1.104937       -0.512908
H          -0.010110        2.728585       -0.633801
C          -0.518212        1.284661        1.433157
H          -0.942354       -0.799491        2.019011
C          -1.008220       -0.291075        1.183370
H          -0.236149        1.949020        1.451509
C          -0.058305        1.591555       -0.293053
H          -0.330702        0.750105       -1.190956
H          -1.643278       -1.358154       -0.438371
16
reaction_000_gen_9_frame_0811
H           0.460072       -1.729812       -1.296342
C           0.914991       -1.071706       -0.652987
H           1.065224       -1.713674       -0.122610
C           0.899108        0.643364       -0.248596
H           1.389181       -0.018962        0.076045
H           1.924498        1.178402       -2.027793
H          -0.897489       -2.027505        1.237535
C          -0.939124       -1.125479       -0.454297
H          -0.020149        2.728409       -0.622997
C          -0.503422        1.251005        1.404266
H          -0.946663       -0.787840        2.000646
C          -0.968552       -0.282703        1.247059
H          -0.289959        1.948512        1.423842
C          -0.055296        1.607343       -0.311331
H          -0.352983        0.790641       -1.233036
H          -1.679437       -1.389997       -0.419405
16
reaction_000_gen_9_frame_0812
H           0.466490       -1.732237       -1.282662
C           0.869251       -1.034301       -0.637456
H           1.067935       -1.681441       -0.107124
C           0.860983        0.673830       -0.247034
H           1.405339        0.030781        0.054545
H           1.992685        1.127465       -2.015732
H          -0.844750       -2.055544        1.222420
C          -0.938944       -1.100614       -0.447287
H          -0.041193        2.669882       -0.601313
C          -0.503571        1.214334        1.355595
H          -0.944981       -0.802263        2.013018
C          -0.927111       -0.265283        1.244723
H          -0.326433        1.965814        1.433109
C          -0.077166        1.615459       -0.355464
H          -0.334668        0.786411       -1.234808
H          -1.723869       -1.412294       -0.394531
16
reaction_000_gen_9_frame_0813
H           0.444708       -1.761937       -1.293387
C           0.875296       -1.017901       -0.582122
H           1.084158       -1.645172       -0.096338
C           0.856806        0.654105       -0.251558
H           1.419585        0.056508        0.076099
H           2.005970        1.080493       -2.017739
H          -0.827799       -2.103071        1.226520
C          -0.905384       -1.137415       -0.454549
H          -0.074700        2.670865       -0.596771
C          -0.527079        1.223818        1.322797
H          -0.939270       -0.819028        2.025886
C          -0.949041       -0.209756        1.261999
H          -0.330528        1.954337        1.420283
C          -0.059968        1.629588       -0.362674
H          -0.334977        0.819992       -1.233300
H          -1.737778       -1.395425       -0.445146
16
reaction_000_gen_9_frame_0814
H           0.437779       -1.749041       -1.295731
C           0.861723       -1.009615       -0.592276
H           1.068007       -1.638245       -0.073224
C           0.874306        0.694918       -0.255628
H           1.353848        0.010516        0.094701
H           2.024295        1.046385       -1.988568
H          -0.849898       -2.126774        1.229591
C          -0.884966       -1.158969       -0.436170
H          -0.065604        2.666549       -0.582982
C          -0.509464        1.236575        1.286661
H          -0.952762       -0.788091        2.017498
C          -0.955060       -0.193754        1.271875
H          -0.311271        1.971501        1.394151
C          -0.068666        1.624901       -0.355394
H          -0.314040        0.790706       -1.233191
H          -1.708227       -1.377561       -0.481312
16
reaction_000_gen_9_frame_0815
H           0.440551       -1.741700       -1.292790
C           0.858877       -1.064210       -0.579084
H           1.101251       -1.654498       -0.021036
C           0.882400        0.725765       -0.251604
H           1.366670        0.039426        0.164667
H           2.017882        1.025378       -2.025409
H          -0.866342       -2.112595        1.235617
C          -0.897107       -1.145032       -0.420785
H          -0.107295        2.699355       -0.612504
C          -0.514958        1.224813        1.245831
H          -0.898509       -0.816375        2.016264
C          -0.917981       -0.200383        1.245821
H          -0.316104        1.936900        1.395453
C          -0.085290        1.641149       -0.351859
H          -0.314380        0.807355       -1.265635
H          -1.749665       -1.365349       -0.482948
16
reaction_000_gen_9_frame_0816
H           0.482859       -1.734740       -1.242558
C           0.867476       -1.059800       -0.585261
H           1.130974       -1.637283       -0.057243
C           0.885018        0.749506       -0.247417
H           1.325416        0.021945        0.183338
H           2.027695        1.016324       -2.016949
H          -0.846045       -2.089155        1.229746
C          -0.921212       -1.177240       -0.381524
H          -0.151439        2.717401       -0.631413
C          -0.498626        1.199615        1.225207
H          -0.866479       -0.795749        2.034608
C          -0.952875       -0.199242        1.236339
H          -0.341531        1.933981        1.369594
C          -0.086841        1.633528       -0.342043
H          -0.344649        0.807909       -1.240025
H          -1.709742       -1.387000       -0.534401
16
reaction_000_gen_9_frame_0817
H           0.521624       -1.755641       -1.279510
C           0.871280       -1.072534       -0.559798
H           1.181878       -1.658297       -0.028618
C           0.890660        0.761503       -0.311681
H           1.301509        0.017741        0.205312
H           2.028597        1.047424       -2.004978
H          -0.829706       -2.071869        1.168783
C          -0.963866       -1.143207       -0.343846
H          -0.126089        2.704564       -0.643406
C          -0.474025        1.163346        1.231029
H          -0.891690       -0.784377        2.009179
C          -0.958078       -0.221589        1.280597
H          -0.369059        1.941074        1.368436
C          -0.148647        1.636073       -0.336257
H          -0.333100        0.817723       -1.216733
H          -1.701285       -1.381933       -0.538511
16
reaction_000_gen_9_frame_0818
H           0.510534       -1.738626       -1.251714
C           0.843119       -1.090268       -0.553438
H           1.194917       -1.624015       -0.040925
C           0.929892        0.779053       -0.333558
H           1.301790        0.023333        0.200256
H           2.020037        1.018928       -1.958752
H          -0.812227       -2.059105        1.158861
C          -0.956885       -1.194045       -0.381532
H          -0.158245        2.674208       -0.642928
C          -0.488567        1.111978        1.263845
H          -0.934156       -0.806373        1.997136
C          -0.918267       -0.169665        1.268300
H          -0.370854        1.982006        1.387722
C          -0.126371        1.651323       -0.332584
H          -0.367947        0.810802       -1.226344
H          -1.666770       -1.369534       -0.554345
16
reaction_000_gen_9_frame_0819
H           0.510867       -1.704773       -1.234376
C           0.851241       -1.072448       -0.563578
H           1.161028       -1.704177       -0.030007
C           0.955443        0.800121       -0.363484
H           1.352729        0.029212        0.181388
H           1.954563        1.004796       -1.936859
H          -0.894300       -2.033083        1.173378
C          -0.949094       -1.192445       -0.382264
H          -0.096570        2.705427       -0.665771
C          -0.492662        1.089312        1.244086
H          -0.942960       -0.815190        2.017515
C          -0.922950       -0.169680        1.263909
H          -0.334727        2.023931        1.396215
C          -0.097366        1.627774       -0.338905
H          -0.343487        0.814768       -1.176679
H          -1.711756       -1.403547       -0.584569
16
reaction_000_gen_9_frame_0820
H           0.546131       -1.678052       -1.209192
C           0.863085       -1.097449       -0.565273
H           1.139532       -1.698408       -0.013632
C           0.951823        0.806065       -0.357768
H           1.369962        0.071192        0.179193
H           1.929275        1.005770       -1.955562
H          -0.877905       -2.028253        1.120228
C          -0.918331       -1.161043       -0.371543
H          -0.094601        2.712080       -0.676915
C          -0.489346        1.093410        1.233259
H          -1.006657       -0.830712        2.001755
C          -0.940794       -0.212115        1.260856
H          -0.309901        1.989784        1.394206
C          -0.134437        1.640725       -0.297006
H          -0.325718        0.784025       -1.169559
H          -1.702118       -1.397019       -0.573047
16
reaction_000_gen_9_frame_0821
H           0.543795       -1.662574       -1.203694
C           0.900761       -1.057002       -0.530152
H           1.169789       -1.731005        0.018216
C           0.916469        0.810562       -0.361647
H           1.396165        0.104215        0.185940
H           1.871246        1.012603       -2.000289
H          -0.846557       -2.044080        1.136798
C          -0.941613       -1.176387       -0.374881
H          -0.060343        2.724781       -0.690917
C          -0.510640        1.061012        1.232306
H          -1.004105       -0.828535        1.993652
C          -0.950558       -0.243933        1.263331
H          -0.334908        2.010625        1.405088
C          -0.161714        1.671102       -0.293153
H          -0.302263        0.739120       -1.197062
H          -1.685523       -1.390502       -0.583537
16
reaction_000_gen_9_frame_0822
H           0.560199       -1.679844       -1.204755
C           0.865769       -1.049566       -0.502898
H           1.185154       -1.744766        0.027353
C           0.909310        0.851452       -0.348850
H           1.434512        0.142236        0.234294
H           1.867609        1.033128       -2.005083
H          -0.877215       -2.063472        1.103847
C          -0.913943       -1.202691       -0.386500
H          -0.075225        2.712200       -0.708630
C          -0.497614        1.025185        1.256169
H          -0.994085       -0.802695        1.990506
C          -0.938718       -0.289881        1.244724
H          -0.365479        1.985663        1.394397
C          -0.212261        1.722740       -0.286123
H          -0.288238        0.740539       -1.179844
H          -1.659776       -1.380228       -0.628609
16
reaction_000_gen_9_frame_0823
H           0.581361       -1.622903       -1.225221
C           0.832116       -1.045013       -0.516637
H           1.187191       -1.808314        0.057101
C           0.888704        0.897074       -0.371841
H           1.418026        0.170634        0.272141
H           1.842919        0.979051       -1.995198
H          -0.877201       -2.113317        1.077115
C          -0.930440       -1.219856       -0.365270
H          -0.072407        2.712648       -0.724822
C          -0.486986        1.007991        1.224943
H          -0.940031       -0.793270        2.005995
C          -0.937176       -0.259656        1.218710
H          -0.375498        1.986460        1.417380
C          -0.211730        1.718774       -0.261161
H          -0.274496        0.734362       -1.197674
H          -1.644353       -1.344663       -0.615559
16
reaction_000_gen_9_frame_0824
H           0.582682       -1.670652       -1.225293
C           0.842170       -1.066747       -0.542034
H           1.203959       -1.763037        0.081015
C           0.879897        0.908652       -0.338479
H           1.419695        0.161462        0.298735
H           1.857008        0.972798       -1.963944
H          -0.882080       -2.116498        1.078313
C          -0.952176       -1.218621       -0.341103
H          -0.107473        2.721335       -0.750268
C          -0.540198        1.016760        1.217468
H          -0.934665       -0.804205        2.023323
C          -0.911501       -0.268640        1.195962
H          -0.362884        1.943709        1.365000
C          -0.228064        1.749633       -0.265354
H          -0.227910        0.757220       -1.207085
H          -1.638459       -1.323167       -0.626254
16
reaction_000_gen_9_frame_0825
H           0.624237       -1.646282       -1.214044
C           0.881702       -1.079205       -0.514639
H           1.221783       -1.727227        0.175072
C           0.865746        0.883492       -0.341229
H           1.433237        0.154425        0.314058
H           1.861852        0.962074       -1.970235
H          -0.939695       -2.099183        1.059667
C          -0.985269       -1.224930       -0.398211
H          -0.120005        2.715162       -0.771044
C          -0.545110        1.037586        1.197466
H          -0.935952       -0.846702        2.035532
C          -0.897981       -0.287003        1.211343
H          -0.325878        1.961433        1.349226
C          -0.276016        1.791993       -0.287195
H          -0.206476        0.725662       -1.226243
H          -1.656177       -1.321296       -0.619523
16
reaction_000_gen_9_frame_0826
H           0.593002       -1.663237       -1.192370
C           0.953317       -1.095771       -0.481265
H           1.264850       -1.738301        0.160266
C           0.841197        0.885782       -0.325379
H           1.466595        0.204719        0.289544
H           1.860120        0.974143       -1.980690
H          -0.940504       -2.093842        1.031853
C          -1.010455       -1.232976       -0.413136
H          -0.131200        2.711761       -0.739055
C          -0.555176        1.048404        1.175142
H          -0.935281       -0.858374        2.066045
C          -0.924843       -0.278240        1.194734
H          -0.334136        1.975447        1.361773
C          -0.293741        1.790636       -0.280069
H          -0.214951        0.746208       -1.213735
H          -1.638796       -1.376358       -0.653658
16
reaction_000_gen_9_frame_0827
H           0.584716       -1.631418       -1.162744
C           0.948662       -1.101792       -0.512974
H           1.238057       -1.727942        0.149670
C           0.868300        0.874171       -0.355522
H           1.435113        0.258747        0.278761
H           1.827424        0.964849       -2.013652
H          -0.920597       -2.072163        0.984770
C          -0.999853       -1.272151       -0.396863
H          -0.068648        2.710040       -0.711443
C          -0.527148        1.041230        1.180313
H          -0.973329       -0.870818        2.106338
C          -0.913250       -0.281613        1.225299
H          -0.319392        1.943438        1.334516
C          -0.321985        1.819990       -0.260937
H          -0.221509        0.764547       -1.218818
H          -1.636562       -1.419113       -0.626713
16
reaction_000_gen_9_frame_0828
H           0.579120       -1.646239       -1.136786
C           0.965779       -1.075435       -0.504913
H           1.213779       -1.756969        0.166027
C           0.842098        0.878084       -0.358486
H           1.451510        0.264706        0.284464
H           1.844990        0.954648       -2.015458
H          -0.920549       -2.051208        0.957500
C          -0.969801       -1.279758       -0.361350
H          -0.034035        2.695332       -0.733972
C          -0.518836        1.070490        1.199500
H          -1.016872       -0.901565        2.099220
C          -0.949637       -0.305098        1.213602
H          -0.329318        2.002869        1.307652
C          -0.330812        1.804355       -0.268747
H          -0.209857        0.792887       -1.231575
H          -1.617559       -1.447099       -0.616678
16
reaction_000_gen_9_frame_0829
H           0.580730       -1.631512       -1.097230
C           0.987270       -1.080680       -0.464865
H           1.209927       -1.737666        0.190511
C           0.836456        0.850116       -0.369589
H           1.429658        0.233795        0.255249
H           1.825467        0.921084       -2.063773
H          -0.939637       -2.059242        0.974045
C          -0.949963       -1.240105       -0.377792
H           0.042028        2.746533       -0.722421
C          -0.524420        1.060688        1.197115
H          -1.043843       -0.862580        2.073364
C          -0.937113       -0.301151        1.212303
H          -0.345608        1.972739        1.350579
C          -0.361128        1.804032       -0.259508
H          -0.217093        0.796889       -1.236198
H          -1.592730       -1.472940       -0.661789
16
reaction_000_gen_9_frame_0830
H           0.589243       -1.623140       -1.101468
C           0.987487       -1.104056       -0.477824
H           1.215210       -1.761735        0.216839
C           0.839029        0.857205       -0.382257
H           1.438148        0.224514        0.256570
H           1.843962        0.896957       -2.055345
H          -0.963878       -2.080769        0.990288
C          -0.922108       -1.260099       -0.319066
H           0.028415        2.757043       -0.692417
C          -0.538406        1.048772        1.161093
H          -1.060517       -0.868690        2.119252
C          -0.925152       -0.283373        1.164801
H          -0.381398        1.963116        1.309069
C          -0.356919        1.821971       -0.255952
H          -0.229429        0.814326       -1.246054
H          -1.563688       -1.402040       -0.687530
16
reaction_000_gen_9_frame_0831
H           0.543493       -1.615038       -1.093751
C           0.965359       -1.098145       -0.510385
H           1.209026       -1.743909        0.244463
C           0.895366        0.813136       -0.379552
H           1.486732        0.204219        0.229542
H           1.864989        0.906891       -2.051013
H          -0.971576       -2.084646        0.965632
C          -0.974381       -1.271665       -0.335195
H           0.018613        2.731555       -0.636828
C          -0.548095        1.039834        1.103419
H          -1.070967       -0.802680        2.097753
C          -0.913357       -0.287008        1.175373
H          -0.397110        1.976463        1.321345
C          -0.314942        1.845626       -0.249294
H          -0.240423        0.791532       -1.248725
H          -1.552727       -1.406165       -0.632786
16
reaction_000_gen_9_frame_0832
H           0.476844       -1.643726       -1.087328
C           0.978295       -1.133754       -0.529941
H           1.204408       -1.798772        0.275562
C           0.905262        0.818044       -0.372328
H           1.498685        0.178986        0.262694
H           1.844725        0.885224       -2.040221
H          -0.966726       -2.084491        0.929066
C          -0.927521       -1.264222       -0.324113
H           0.035134        2.751274       -0.669980
C          -0.581946        1.065231        1.073997
H          -1.097461       -0.790144        2.066536
C          -0.901856       -0.277079        1.188558
H          -0.411624        1.976758        1.304819
C          -0.263115        1.881765       -0.207188
H          -0.238230        0.812181       -1.231356
H          -1.554875       -1.377276       -0.638777
16
reaction_000_gen_9_frame_0833
H           0.454437       -1.641374       -1.088345
C           1.003068       -1.146086       -0.509221
H           1.206084       -1.734435        0.268867
C           0.927910        0.803724       -0.353224
H           1.463672        0.144325        0.264223
H           1.846690        0.896213       -2.035702
H          -0.938566       -2.148779        0.916963
C          -0.927868       -1.236415       -0.306569
H           0.037477        2.771539       -0.644327
C          -0.628587        1.044977        1.052122
H          -1.100906       -0.771711        2.067348
C          -0.893572       -0.281029        1.197748
H          -0.384080        1.950246        1.282004
C          -0.280325        1.906592       -0.212607
H          -0.250140        0.755321       -1.267430
H          -1.535294       -1.313109       -0.631849
16
reaction_000_gen_9_frame_0834
H           0.478284       -1.629657       -1.108608
C           1.012539       -1.166895       -0.517907
H           1.165328       -1.759762        0.236849
C           0.987487        0.820011       -0.333941
H           1.437155        0.117891        0.289131
H           1.825231        0.887447       -2.063624
H          -0.933325       -2.154571        0.888074
C          -0.931703       -1.265209       -0.315232
H           0.052788        2.772642       -0.670713
C          -0.592875        1.046987        1.045089
H          -1.119726       -0.792863        2.127351
C          -0.916057       -0.284564        1.202819
H          -0.376722        1.986911        1.299830
C          -0.285792        1.923412       -0.149183
H          -0.266557        0.769393       -1.267334
H          -1.536057       -1.271174       -0.662602
16
reaction_000_gen_9_frame_0835
H           0.485611       -1.625090       -1.117249
C           1.043892       -1.156648       -0.517518
H           1.168447       -1.800578        0.225339
C           0.987410        0.828323       -0.335818
H           1.444069        0.129330        0.335384
H           1.809824        0.878318       -2.102913
H          -0.937180       -2.157035        0.920615
C          -0.939972       -1.235097       -0.335184
H           0.044459        2.774453       -0.700108
C          -0.605173        1.090114        1.063666
H          -1.138221       -0.798933        2.157935
C          -0.888620       -0.261449        1.217995
H          -0.395867        1.958950        1.314438
C          -0.278331        1.884789       -0.158759
H          -0.262370        0.784908       -1.288856
H          -1.537977       -1.294354       -0.678967
16
reaction_000_gen_9_frame_0836
H           0.478874       -1.675339       -1.118702
C           1.065527       -1.128048       -0.528416
H           1.195381       -1.798744        0.199814
C           0.986851        0.867167       -0.344634
H           1.417841        0.110810        0.337973
H           1.784988        0.893667       -2.090367
H          -0.945563       -2.211897        0.930199
C          -0.949159       -1.184703       -0.338376
H           0.041775        2.810341       -0.665103
C          -0.631350        1.035630        1.067779
H          -1.123220       -0.783631        2.165762
C          -0.883620       -0.277045        1.234430
H          -0.388515        1.903313        1.244173
C          -0.285966        1.908545       -0.153543
H          -0.260910        0.789183       -1.242960
H          -1.502936       -1.259250       -0.698029
16
reaction_000_gen_9_frame_0837
H           0.509502       -1.682134       -1.164398
C           1.066318       -1.142067       -0.529408
H           1.150860       -1.799182        0.219395
C           1.008550        0.874986       -0.379743
H           1.409864        0.108960        0.328644
H           1.801114        0.907510       -2.133717
H          -0.957082       -2.197038        0.956958
C          -0.935966       -1.132944       -0.304177
H           0.033063        2.728525       -0.678493
C          -0.667508        1.036450        1.080862
H          -1.062556       -0.833606        2.162164
C          -0.906429       -0.307709        1.229602
H          -0.408387        1.935858        1.299737
C          -0.268820        1.918131       -0.130846
H          -0.293589        0.853257       -1.240641
H          -1.478935       -1.268997       -0.715941
16
reaction_000_gen_9_frame_0838
H           0.526595       -1.674511       -1.142237
C           1.107145       -1.090574       -0.516941
H           1.147181       -1.820244        0.174107
C           1.008976        0.860038       -0.375502
H           1.405315        0.117824        0.288412
H           1.782841        0.903128       -2.149575
H          -0.960373       -2.199106        0.947786
C          -0.947156       -1.136474       -0.311506
H           0.004513        2.757254       -0.702098
C          -0.675273        1.028145        1.065087
H          -1.053829       -0.900725        2.175428
C          -0.902849       -0.311546        1.230267
H          -0.448327        1.978979        1.314390
C          -0.243243        1.926337       -0.106525
H          -0.300195        0.815200       -1.215404
H          -1.451321       -1.253724       -0.675688
16
reaction_000_gen_9_frame_0839
H           0.502615       -1.681321       -1.149480
C           1.107292       -1.033622       -0.567421
H           1.139202       -1.812079        0.185231
C           1.023673        0.837268       -0.348043
H           1.402187        0.095782        0.285942
H           1.791093        0.888100       -2.085674
H          -0.958159       -2.208541        0.930276
C          -0.965243       -1.123681       -0.311131
H           0.029533        2.746163       -0.668329
C          -0.673420        1.018577        1.060936
H          -1.052164       -0.887034        2.193870
C          -0.916066       -0.319141        1.254786
H          -0.447679        1.977406        1.262221
C          -0.259057        1.949466       -0.105843
H          -0.269804        0.825954       -1.232298
H          -1.454003       -1.273299       -0.705042
16
reaction_000_gen_9_frame_0840
H           0.500474       -1.675180       -1.139816
C           1.102187       -1.052134       -0.542225
H           1.140771       -1.814474        0.179713
C           1.025686        0.812740       -0.371464
H           1.382708        0.122681        0.286206
H           1.767581        0.906751       -2.108455
H          -0.975407       -2.224355        0.947992
C          -0.934471       -1.097067       -0.272573
H           0.036731        2.739040       -0.649846
C          -0.689672        1.049446        1.054257
H          -0.978674       -0.925805        2.167559
C          -0.922139       -0.321695        1.238344
H          -0.465622        1.984030        1.233708
C          -0.265411        1.931406       -0.123501
H          -0.325596        0.842082       -1.213184
H          -1.399146       -1.277467       -0.686715
16
reaction_000_gen_9_frame_0841
H           0.500642       -1.655124       -1.175662
C           1.064053       -1.031017       -0.556796
H           1.118485       -1.840179        0.135797
C           1.051693        0.835099       -0.356043
H           1.396291        0.171025        0.297168
H           1.787467        0.915630       -2.111976
H          -0.988078       -2.242971        0.955109
C          -0.927861       -1.096639       -0.286053
H           0.043590        2.752480       -0.626585
C          -0.725548        1.071035        1.082342
H          -0.986698       -0.944839        2.174564
C          -0.883356       -0.357314        1.228420
H          -0.437392        1.982552        1.225809
C          -0.250855        1.883374       -0.115702
H          -0.331762        0.825279       -1.194578
H          -1.430672       -1.268391       -0.675815
16
reaction_000_gen_9_frame_0842
H           0.526116       -1.666307       -1.192686
C           1.029083       -1.076973       -0.548068
H           1.150168       -1.832113        0.144531
C           1.071908        0.858055       -0.358201
H           1.427815        0.171843        0.306169
H           1.774567        0.933040       -2.137424
H          -0.978672       -2.277975        0.961769
C          -0.946908       -1.087790       -0.258599
H           0.050819        2.739442       -0.578715
C          -0.743295        1.053335        1.094821
H          -1.006921       -0.935550        2.166118
C          -0.909275       -0.332763        1.222664
H          -0.440472        1.985284        1.269384
C          -0.244111        1.867742       -0.141160
H          -0.323737        0.858609       -1.233060
H          -1.437085       -1.257879       -0.717543
16
reaction_000_gen_9_frame_0843
H           0.517815       -1.722551       -1.192131
C           1.036147       -1.052615       -0.544433
H           1.138200       -1.821959        0.166176
C           1.054115        0.850182       -0.368655
H           1.438324        0.211884        0.307157
H           1.745482        0.894795       -2.145854
H          -0.977724       -2.258250        0.941544
C          -0.908316       -1.074444       -0.232835
H           0.081662        2.726067       -0.621786
C          -0.749302        1.050338        1.099039
H          -1.025957       -0.929669        2.186749
C          -0.901409       -0.319085        1.218306
H          -0.453183        1.964263        1.294743
C          -0.234528        1.890697       -0.182055
H          -0.345997        0.831285       -1.191814
H          -1.415328       -1.240937       -0.734151
16
reaction_000_gen_9_frame_0844
H           0.513837       -1.718991       -1.181236
C           1.053838       -1.066555       -0.551566
H           1.192819       -1.811597        0.154379
C           1.018156        0.828290       -0.349914
H           1.447651        0.210168        0.318161
H           1.752887        0.873280       -2.145809
H          -1.005187       -2.268435        0.963944
C          -0.891279       -1.082289       -0.237744
H           0.049256        2.710483       -0.623597
C          -0.765283        1.058641        1.095784
H          -1.038486       -0.914429        2.173322
C          -0.905039       -0.293430        1.203183
H          -0.372121        1.984029        1.285740
C          -0.227905        1.889877       -0.143557
H          -0.405502        0.816661       -1.252536
H          -1.417642       -1.215703       -0.708555
16
reaction_000_gen_9_frame_0845
H           0.477504       -1.681571       -1.204122
C           1.018198       -1.056188       -0.535225
H           1.190624       -1.812819        0.135751
C           1.020467        0.829325       -0.372841
H           1.442008        0.250863        0.257378
H           1.711033        0.859486       -2.132890
H          -0.967209       -2.251776        0.976042
C          -0.900603       -1.063512       -0.263053
H           0.083200        2.665484       -0.599766
C          -0.752019        1.070430        1.049001
H          -1.023878       -0.952206        2.197457
C          -0.855159       -0.299310        1.247547
H          -0.376213        1.983338        1.302672
C          -0.231276        1.863137       -0.146655
H          -0.413844        0.832815       -1.249150
H          -1.422833       -1.237495       -0.662146
16
reaction_000_gen_9_frame_0846
H           0.503838       -1.714193       -1.233981
C           0.986360       -1.069386       -0.537347
H           1.203530       -1.791894        0.132381
C           1.054150        0.811615       -0.377509
H           1.433312        0.275900        0.280543
H           1.718515        0.835696       -2.092485
H          -0.927507       -2.292987        0.957515
C          -0.890433       -1.040908       -0.222479
H           0.030657        2.690510       -0.609148
C          -0.779995        1.071513        1.042723
H          -1.016795       -0.923780        2.189702
C          -0.859995       -0.323688        1.233412
H          -0.392683        1.994310        1.277132
C          -0.206468        1.850952       -0.152832
H          -0.405933        0.861416       -1.256926
H          -1.450551       -1.235074       -0.630701
16
reaction_000_gen_9_frame_0847
H           0.516760       -1.732655       -1.247470
C           0.975279       -1.069258       -0.517675
H           1.216723       -1.756961        0.127784
C           1.039415        0.766237       -0.361798
H           1.460244        0.280490        0.282824
H           1.695724        0.826341       -2.107135
H          -0.886896       -2.275124        0.923844
C          -0.889970       -1.089095       -0.158778
H           0.040966        2.699641       -0.602679
C          -0.752892        1.078738        0.985489
H          -1.010748       -0.860018        2.210820
C          -0.816434       -0.338748        1.282141
H          -0.429816        1.998543        1.265646
C          -0.239061        1.770618       -0.207525
H          -0.477140        0.910462       -1.257818
H          -1.442152       -1.209210       -0.617669
16
reaction_000_gen_9_frame_0848
H           0.560086       -1.761643       -1.227642
C           0.973608       -1.068042       -0.510800
H           1.222989       -1.732244        0.109024
C           1.036470        0.790691       -0.340615
H           1.469982        0.299333        0.316751
H           1.716939        0.804270       -2.094579
H          -0.928022       -2.252596        0.919226
C          -0.869365       -1.038829       -0.130821
H           0.034501        2.642190       -0.587070
C          -0.798152        1.061805        0.989154
H          -1.005277       -0.873190        2.210148
C          -0.828205       -0.354780        1.226992
H          -0.424544        2.045219        1.298883
C          -0.208046        1.777962       -0.223108
H          -0.490523        0.893108       -1.273144
H          -1.462443       -1.233253       -0.682400
16
reaction_000_gen_9_frame_0849
H           0.585661       -1.790786       -1.223819
C           1.004859       -1.060175       -0.530511
H           1.190508       -1.748100        0.084583
C           1.068230        0.790101       -0.357897
H           1.487561        0.337325        0.297081
H           1.709764        0.789615       -2.052685
H          -0.922433       -2.201597        0.881095
C          -0.844204       -1.048397       -0.125620
H           0.013973        2.609944       -0.586054
C          -0.791957        1.096295        0.989527
H          -1.005153       -0.908941        2.208534
C          -0.862506       -0.398311        1.254415
H          -0.456409        2.062706        1.319258
C          -0.208949        1.756166       -0.210128
H          -0.516597        0.904383       -1.268786
H          -1.452346       -1.190227       -0.678994
16
reaction_000_gen_9_frame_0850
H           0.592431       -1.770010       -1.211965
C           0.971477       -1.042082       -0.512486
H           1.166432       -1.769449        0.108694
C           1.037032        0.750475       -0.395386
H           1.470908        0.309706        0.303063
H           1.726521        0.794263       -2.064954
H          -0.894704       -2.189104        0.879690
C          -0.854411       -1.062843       -0.118927
H           0.032021        2.601687       -0.545450
C          -0.773263        1.139609        0.977695
H          -1.008321       -0.872832        2.202410
C          -0.817662       -0.409211        1.281118
H          -0.438390        2.034774        1.313695
C          -0.206717        1.756161       -0.259894
H          -0.545981        0.885834       -1.260622
H          -1.457373       -1.156979       -0.696681
16
reaction_000_gen_9_frame_0851
H           0.567735       -1.723518       -1.224174
C           0.963531       -1.042957       -0.529420
H           1.142035       -1.764048        0.062050
C           1.084542        0.687958       -0.388303
H           1.501982        0.281234        0.287623
H           1.758992        0.822156       -2.004288
H          -0.875109       -2.173027        0.865916
C          -0.877519       -1.100875       -0.146480
H           0.011905        2.576983       -0.538914
C          -0.766513        1.167918        0.962286
H          -0.988463       -0.874631        2.232966
C          -0.820870       -0.415368        1.328824
H          -0.454207        2.039050        1.302827
C          -0.238727        1.771248       -0.261381
H          -0.529040        0.900157       -1.255479
H          -1.480275       -1.152278       -0.694054
16
reaction_000_gen_9_frame_0852
H           0.550091       -1.724762       -1.181021
C           0.928904       -1.009572       -0.529954
H           1.170473       -1.758705        0.080761
C           1.114844        0.670934       -0.387433
H           1.508356        0.269067        0.274427
H           1.770076        0.860324       -2.016179
H          -0.871835       -2.193705        0.858903
C          -0.888786       -1.129257       -0.171410
H          -0.025553        2.578568       -0.588245
C          -0.782870        1.177670        0.954849
H          -1.022153       -0.870564        2.251448
C          -0.821449       -0.410159        1.339155
H          -0.410786        2.017626        1.318201
C          -0.220621        1.768023       -0.210294
H          -0.500695        0.934004       -1.273215
H          -1.497996       -1.179490       -0.719993
16
reaction_000_gen_9_frame_0853
H           0.518570       -1.755688       -1.181767
C           0.957545       -1.023001       -0.509013
H           1.152401       -1.748863        0.075453
C           1.126384        0.688488       -0.391685
H           1.499703        0.299180        0.295153
H           1.771180        0.831384       -1.998724
H          -0.861989       -2.186723        0.800775
C          -0.921768       -1.130035       -0.163314
H           0.004953        2.549257       -0.589553
C          -0.814850        1.183947        0.926133
H          -1.047664       -0.808863        2.261123
C          -0.834371       -0.406575        1.358982
H          -0.358802        1.980187        1.303094
C          -0.219310        1.761275       -0.230265
H          -0.498978        0.925481       -1.234960
H          -1.473004       -1.159451       -0.721432
16
reaction_000_gen_9_frame_0854
H           0.512439       -1.784136       -1.191535
C           0.963616       -1.008284       -0.495393
H           1.165490       -1.740460        0.075985
C           1.093743        0.731625       -0.396559
H           1.519580        0.276431        0.322880
H           1.794003        0.798993       -2.006732
H          -0.831724       -2.183563        0.768881
C          -0.955026       -1.092501       -0.221080
H           0.021010        2.523273       -0.595884
C          -0.792158        1.172692        0.929598
H          -1.057707       -0.798463        2.236776
C          -0.803187       -0.423974        1.383619
H          -0.398131        2.009506        1.323645
C          -0.184671        1.730047       -0.190852
H          -0.558188        0.918479       -1.213324
H          -1.489090       -1.129666       -0.730025
16
reaction_000_gen_9_frame_0855
H           0.547555       -1.803080       -1.206596
C           0.983285       -0.992196       -0.516467
H           1.179136       -1.749106        0.131580
C           1.087474        0.722810       -0.383290
H           1.544976        0.277016        0.339079
H           1.765027        0.786448       -1.995318
H          -0.861682       -2.198759        0.773191
C          -0.976585       -1.066690       -0.221950
H          -0.048430        2.543612       -0.605149
C          -0.766293        1.160228        0.886836
H          -1.014084       -0.794153        2.224812
C          -0.786503       -0.401113        1.382319
H          -0.423176        1.979529        1.296355
C          -0.211182        1.737100       -0.165056
H          -0.559098        0.912152       -1.198345
H          -1.460421       -1.113798       -0.742001
16
reaction_000_gen_9_frame_0856
H           0.564552       -1.809270       -1.232424
C           0.996608       -0.971780       -0.503222
H           1.163088       -1.726071        0.129575
C           1.066257        0.735680       -0.414781
H           1.551169        0.307298        0.336796
H           1.732014        0.786076       -2.002650
H          -0.826127       -2.156459        0.778084
C          -0.970413       -1.086069       -0.182677
H          -0.031365        2.547363       -0.592637
C          -0.771782        1.128192        0.913557
H          -0.994987       -0.802822        2.157378
C          -0.802982       -0.398852        1.396798
H          -0.421643        1.964643        1.287072
C          -0.216160        1.716227       -0.162524
H          -0.550268        0.886008       -1.188649
H          -1.487961       -1.120163       -0.719698
16
reaction_000_gen_9_frame_0857
H           0.579902       -1.802723       -1.202037
C           0.986829       -0.980535       -0.522019
H           1.209147       -1.738392        0.102573
C           1.066760        0.750630       -0.423007
H           1.526775        0.263251        0.333558
H           1.732442        0.765804       -1.984427
H          -0.836653       -2.165843        0.799195
C          -0.972287       -1.094692       -0.181416
H          -0.022371        2.569110       -0.572685
C          -0.819991        1.098360        0.923153
H          -0.985808       -0.769650        2.087001
C          -0.796552       -0.380639        1.397271
H          -0.431644        1.945920        1.284828
C          -0.192770        1.719230       -0.157002
H          -0.559517        0.890366       -1.166422
H          -1.484261       -1.070199       -0.718562
16
reaction_000_gen_9_frame_0858
H           0.571238       -1.775747       -1.182610
C           0.989004       -0.987304       -0.492370
H           1.213568       -1.711343        0.086220
C           1.051433        0.750625       -0.401724
H           1.533880        0.289299        0.326654
H           1.734714        0.779781       -2.030942
H          -0.879806       -2.162823        0.816431
C          -0.974988       -1.134457       -0.168000
H           0.006574        2.566303       -0.590730
C          -0.847108        1.105507        0.927909
H          -0.979752       -0.745262        2.105205
C          -0.808892       -0.374768        1.367633
H          -0.397729        1.923582        1.284492
C          -0.179379        1.663812       -0.163953
H          -0.550916        0.865569       -1.158130
H          -1.481841       -1.052773       -0.726085
16
reaction_000_gen_9_frame_0859
H           0.562318       -1.776678       -1.155818
C           1.032954       -1.003125       -0.519199
H           1.227602       -1.722847        0.112117
C           1.062922        0.771954       -0.380003
H           1.543460        0.354720        0.283543
H           1.750057        0.801620       -2.055988
H          -0.935704       -2.140258        0.763132
C          -0.983289       -1.117627       -0.158841
H           0.008370        2.549090       -0.576135
C          -0.863267        1.075360        0.912756
H          -0.974129       -0.778703        2.137268
C          -0.795596       -0.404320        1.369177
H          -0.406898        1.957516        1.305673
C          -0.208117        1.655997       -0.178545
H          -0.559852        0.852825       -1.135853
H          -1.460831       -1.075525       -0.723285
16
reaction_000_gen_9_frame_0860
H           0.563373       -1.772098       -1.178268
C           1.010351       -1.045712       -0.509909
H           1.220122       -1.778959        0.114865
C           1.092075        0.768948       -0.362238
H           1.506710        0.415497        0.272387
H           1.783360        0.796329       -2.029520
H          -0.933242       -2.099308        0.762862
C          -0.981860       -1.090482       -0.137563
H           0.000523        2.564225       -0.585932
C          -0.829933        1.074303        0.886233
H          -0.970387       -0.784186        2.178644
C          -0.775733       -0.407182        1.391644
H          -0.424930        1.969294        1.268273
C          -0.210668        1.629098       -0.192051
H          -0.605961        0.833361       -1.141485
H          -1.443801       -1.073128       -0.737942
16
reaction_000_gen_9_frame_0861
H           0.547566       -1.832044       -1.196608
C           1.010651       -1.049637       -0.527555
H           1.235974       -1.760609        0.136511
C           1.121796        0.763410       -0.374763
H           1.515173        0.443078        0.266096
H           1.784141        0.774688       -2.004959
H          -0.917843       -2.110024        0.746048
C          -0.954515       -1.067204       -0.117709
H          -0.016213        2.558921       -0.581629
C          -0.842095        1.087152        0.918576
H          -0.962030       -0.772190        2.182842
C          -0.798297       -0.385601        1.383601
H          -0.440861        1.971523        1.255142
C          -0.184993        1.629631       -0.185900
H          -0.612762        0.786387       -1.161999
H          -1.485692       -1.037480       -0.737693
16
reaction_000_gen_9_frame_0862
H           0.556651       -1.836125       -1.200500
C           1.018514       -1.051160       -0.516093
H           1.282864       -1.782252        0.136292
C           1.117833        0.802519       -0.391340
H           1.526157        0.459719        0.297269
H           1.742701        0.742771       -2.023826
H          -0.907107       -2.081099        0.779230
C          -0.972014       -1.071074       -0.131651
H           0.011733        2.566399       -0.608852
C          -0.852946        1.124861        0.894710
H          -0.934980       -0.770103        2.220363
C          -0.815683       -0.407016        1.376985
H          -0.475355        1.960531        1.222328
C          -0.170001        1.601217       -0.181727
H          -0.657259        0.780546       -1.165733
H          -1.471107       -1.039735       -0.707456
16
reaction_000_gen_9_frame_0863
H           0.537798       -1.824723       -1.221383
C           1.010141       -1.042763       -0.545521
H           1.323273       -1.764466        0.199385
C           1.147631        0.791997       -0.385230
H           1.494443        0.487663        0.309358
H           1.762229        0.732310       -2.038280
H          -0.929789       -2.095752        0.766660
C          -0.969212       -1.071784       -0.135846
H           0.027893        2.506309       -0.605053
C          -0.849617        1.125009        0.866235
H          -0.940465       -0.780768        2.218258
C          -0.778657       -0.379561        1.409382
H          -0.521073        1.959696        1.262741
C          -0.159137        1.607468       -0.191841
H          -0.661450        0.786646       -1.155152
H          -1.494009       -1.037279       -0.753714
16
reaction_000_gen_9_frame_0864
H           0.538575       -1.837339       -1.242651
C           0.996665       -1.024515       -0.543438
H           1.336735       -1.793194        0.193506
C           1.182278        0.750701       -0.427936
H           1.481412        0.508033        0.290713
H           1.702123        0.714906       -2.003723
H          -0.945474       -2.067951        0.740116
C          -0.983468       -1.064728       -0.142441
H           0.032783        2.530393       -0.592691
C          -0.852329        1.116202        0.883512
H          -0.990043       -0.793888        2.234897
C          -0.779427       -0.364246        1.401022
H          -0.504962        1.948197        1.246239
C          -0.156226        1.613388       -0.145714
H          -0.616046        0.772977       -1.147056
H          -1.442598       -1.008937       -0.744354
16
reaction_000_gen_9_frame_0865
H           0.479069       -1.859067       -1.252139
C           0.997020       -1.037678       -0.523887
H           1.337229       -1.765988        0.230222
C           1.204651        0.773861       -0.443417
H           1.470146        0.534046        0.237301
H           1.709616        0.663103       -1.965613
H          -0.920168       -2.075750        0.732165
C          -0.969377       -1.082312       -0.126831
H           0.011843        2.544669       -0.582953
C          -0.824562        1.122330        0.922374
H          -1.010399       -0.769160        2.195335
C          -0.767093       -0.350937        1.413864
H          -0.504127        1.940170        1.252767
C          -0.174277        1.597547       -0.155465
H          -0.623583        0.772494       -1.134614
H          -1.415990       -1.007327       -0.799109
16
reaction_000_gen_9_frame_0866
H           0.509181       -1.867387       -1.255530
C           0.998385       -1.007912       -0.500435
H           1.318297       -1.767487        0.229046
C           1.215948        0.803126       -0.442536
H           1.481847        0.544552        0.204582
H           1.713426        0.630957       -1.958874
H          -0.921644       -2.067611        0.725106
C          -1.010306       -1.075075       -0.107163
H           0.004074        2.554501       -0.605903
C          -0.798609        1.093184        0.915902
H          -0.995039       -0.780620        2.183025
C          -0.751972       -0.338319        1.441257
H          -0.537751        1.948476        1.247323
C          -0.121245        1.598895       -0.129486
H          -0.645846        0.758345       -1.150561
H          -1.458745       -1.027624       -0.795753
16
reaction_000_gen_9_frame_0867
H           0.511519       -1.880696       -1.268615
C           1.022306       -1.004651       -0.514209
H           1.301343       -1.758025        0.208629
C           1.198956        0.799586       -0.457326
H           1.486219        0.518085        0.183187
H           1.725760        0.623737       -1.955321
H          -0.913185       -2.070566        0.754267
C          -1.017658       -1.049581       -0.103905
H           0.024005        2.541384       -0.593038
C          -0.804830        1.116316        0.900496
H          -0.993721       -0.756012        2.200614
C          -0.752363       -0.342526        1.459175
H          -0.553201        1.941898        1.240757
C          -0.125216        1.586100       -0.144909
H          -0.639073        0.767114       -1.134538
H          -1.470860       -1.032163       -0.775262
16
reaction_000_gen_9_frame_0868
H           0.494647       -1.873101       -1.265572
C           1.036595       -1.000090       -0.508659
H           1.311327       -1.727125        0.188854
C           1.182547        0.814287       -0.501066
H           1.518873        0.506947        0.215178
H           1.729867        0.619281       -1.950293
H          -0.920360       -2.074336        0.770053
C          -1.003703       -1.068155       -0.062077
H           0.034924        2.559943       -0.619600
C          -0.847617        1.120270        0.907058
H          -0.988455       -0.780353        2.234656
C          -0.749738       -0.347782        1.460498
H          -0.581388        1.952662        1.217913
C          -0.093885        1.580895       -0.140995
H          -0.636159        0.759410       -1.171044
H          -1.487475       -1.042753       -0.774904
16
reaction_000_gen_9_frame_0869
H           0.491328       -1.877572       -1.270023
C           1.000251       -1.026186       -0.506039
H           1.323493       -1.737497        0.215472
C           1.194553        0.853215       -0.468118
H           1.549938        0.512523        0.195771
H           1.732140        0.590690       -1.941682
H          -0.892520       -2.087056        0.727452
C          -1.038709       -1.080144       -0.018896
H           0.050817        2.534840       -0.615178
C          -0.879104        1.126279        0.882148
H          -0.987047       -0.764347        2.237676
C          -0.735512       -0.321468        1.448526
H          -0.577198        1.959926        1.211042
C          -0.088433        1.579082       -0.142262
H          -0.645696        0.781535       -1.171813
H          -1.498301       -1.043819       -0.784078
16
reaction_000_gen_9_frame_0870
H           0.501341       -1.855521       -1.274445
C           0.974574       -0.970089       -0.505654
H           1.316189       -1.769364        0.233921
C           1.201484        0.837634       -0.454522
H           1.532925        0.525614        0.183318
H           1.741829        0.594226       -1.972067
H          -0.899769       -2.090271        0.746714
C          -1.028594       -1.073377       -0.017975
H           0.068482        2.528202       -0.613002
C          -0.860752        1.104707        0.883764
H          -1.026733       -0.778512        2.239893
C          -0.746191       -0.288942        1.415471
H          -0.599652        1.955464        1.216288
C          -0.065053        1.584384       -0.107039
H          -0.657598        0.751173       -1.178948
H          -1.452481       -1.055329       -0.795716
16
reaction_000_gen_9_frame_0871
H           0.510536       -1.870188       -1.240021
C           0.947526       -0.990611       -0.543715
H           1.350752       -1.803062        0.224565
C           1.211067        0.843196       -0.445768
H           1.517267        0.490727        0.194329
H           1.736234        0.602978       -1.930743
H          -0.857638       -2.088722        0.719671
C          -0.992330       -1.100709       -0.031929
H           0.058105        2.548182       -0.614228
C          -0.871802        1.129631        0.896097
H          -1.011233       -0.785583        2.231444
C          -0.786746       -0.272457        1.456486
H          -0.612682        1.972977        1.210012
C          -0.071204        1.595150       -0.115854
H          -0.667422        0.759612       -1.193360
H          -1.460432       -1.031122       -0.816986
16
reaction_000_gen_9_frame_0872
H           0.540219       -1.899239       -1.230686
C           0.959927       -0.984868       -0.534679
H           1.323380       -1.829876        0.218351
C           1.234430        0.828980       -0.458328
H           1.512376        0.475838        0.192850
H           1.749435        0.640785       -1.909350
H          -0.836666       -2.065737        0.723104
C          -0.985923       -1.104427       -0.018264
H           0.052408        2.556030       -0.643560
C          -0.877005        1.124484        0.875861
H          -1.003736       -0.744700        2.209932
C          -0.818558       -0.268573        1.483787
H          -0.616540        1.982549        1.228463
C          -0.103055        1.579209       -0.136201
H          -0.657006        0.780558       -1.176420
H          -1.473685       -1.071015       -0.824859
16
reaction_000_gen_9_frame_0873
H           0.557656       -1.895936       -1.216951
C           0.929389       -1.018003       -0.524262
H           1.304319       -1.817448        0.188349
C           1.223481        0.814488       -0.462743
H           1.540558        0.485272        0.184556
H           1.737546        0.622624       -1.916975
H          -0.854331       -2.037229        0.732236
C          -0.949594       -1.116280        0.007742
H           0.068570        2.554269       -0.632145
C          -0.879452        1.127455        0.877125
H          -0.994250       -0.750266        2.241683
C          -0.828653       -0.238899        1.479511
H          -0.620374        1.996233        1.215829
C          -0.109966        1.583476       -0.161190
H          -0.639651        0.778836       -1.160272
H          -1.485248       -1.088592       -0.852494
16
reaction_000_gen_9_frame_0874
H           0.592214       -1.883874       -1.215063
C           0.931345       -1.004231       -0.516474
H           1.287021       -1.760600        0.167045
C           1.220659        0.816853       -0.466684
H           1.560883        0.466630        0.186475
H           1.756491        0.641764       -1.953603
H          -0.903954       -2.046081        0.735475
C          -0.961861       -1.101026       -0.006890
H           0.093951        2.574082       -0.624631
C          -0.855176        1.129904        0.904384
H          -0.981646       -0.751306        2.230843
C          -0.824623       -0.261736        1.482054
H          -0.623766        1.944874        1.226476
C          -0.140359        1.599384       -0.101710
H          -0.639919        0.767498       -1.192055
H          -1.511260       -1.132134       -0.855640
16
reaction_000_gen_9_frame_0875
H           0.584704       -1.892320       -1.208881
C           0.925237       -1.001729       -0.542490
H           1.261527       -1.799878        0.185215
C           1.234949        0.826337       -0.490203
H           1.544943        0.492795        0.194228
H           1.778718        0.671493       -1.940920
H          -0.893680       -2.067036        0.750657
C          -0.949701       -1.096954        0.003584
H           0.081843        2.573883       -0.613198
C          -0.850404        1.117154        0.895107
H          -0.995786       -0.732371        2.241784
C          -0.843201       -0.265372        1.468634
H          -0.624988        1.946737        1.218869
C          -0.108347        1.588509       -0.095065
H          -0.615817        0.758900       -1.203644
H          -1.529997       -1.120149       -0.863677
16
reaction_000_gen_9_frame_0876
H           0.638876       -1.920093       -1.200493
C           0.921257       -0.983003       -0.554433
H           1.240296       -1.794071        0.193768
C           1.250724        0.827743       -0.474975
H           1.547587        0.459164        0.186626
H           1.781061        0.693251       -1.925617
H          -0.908886       -2.056062        0.755598
C          -0.954193       -1.093458        0.008093
H           0.083038        2.553202       -0.595828
C          -0.869212        1.133546        0.854592
H          -0.967064       -0.743738        2.233037
C          -0.871459       -0.280970        1.452250
H          -0.620065        1.922810        1.210143
C          -0.101116        1.576992       -0.124501
H          -0.603308        0.791193       -1.150906
H          -1.567535       -1.086506       -0.867353
16
reaction_000_gen_9_frame_0877
H           0.649525       -1.882868       -1.230401
C           0.941535       -0.978460       -0.551944
H           1.232544       -1.792867        0.187254
C           1.279052        0.868494       -0.456989
H           1.571999        0.457463        0.187749
H           1.783138        0.703494       -1.909260
H          -0.884429       -2.070945        0.774743
C          -0.956177       -1.123249       -0.000487
H           0.070799        2.546559       -0.604540
C          -0.862992        1.111260        0.875606
H          -0.964208       -0.783190        2.245227
C          -0.881171       -0.277223        1.428203
H          -0.642382        1.936869        1.244078
C          -0.146805        1.553475       -0.166628
H          -0.614334        0.805612       -1.149700
H          -1.576095       -1.074423       -0.872911
16
reaction_000_gen_9_frame_0878
H           0.652552       -1.840800       -1.221488
C           0.920043       -0.957411       -0.539325
H           1.280438       -1.827366        0.191377
C           1.261152        0.810546       -0.432412
H           1.525262        0.471307        0.183508
H           1.767067        0.707009       -1.910108
H          -0.903101       -2.065511        0.747535
C          -0.928255       -1.139141        0.034817
H           0.067286        2.569486       -0.586293
C          -0.892163        1.109471        0.837443
H          -0.956349       -0.788115        2.258387
C          -0.907644       -0.281744        1.416680
H          -0.618142        1.925093        1.222050
C          -0.112864        1.553151       -0.201749
H          -0.613210        0.816050       -1.132957
H          -1.542073       -1.062025       -0.867464
16
reaction_000_gen_9_frame_0879
H           0.657034       -1.809932       -1.231855
C           0.927737       -0.940281       -0.549229
H           1.328647       -1.801055        0.204104
C           1.217885        0.797070       -0.434252
H           1.537755        0.419161        0.169423
H           1.742106        0.685651       -1.927533
H          -0.907214       -2.088291        0.756741
C          -0.921953       -1.187544        0.032278
H           0.088913        2.620155       -0.601941
C          -0.885017        1.113158        0.839264
H          -0.953182       -0.794733        2.292542
C          -0.906655       -0.284930        1.415682
H          -0.614825        1.926974        1.244612
C          -0.144014        1.579116       -0.202934
H          -0.608106        0.800302       -1.143771
H          -1.559114       -1.034820       -0.863133
16
reaction_000_gen_9_frame_0880
H           0.619352       -1.799049       -1.245213
C           0.907768       -0.931625       -0.532201
H           1.360287       -1.790186        0.245027
C           1.228886        0.771308       -0.409365
H           1.539383        0.432305        0.148278
H           1.771981        0.654451       -1.912820
H          -0.901988       -2.103026        0.692584
C          -0.921149       -1.169298        0.027019
H           0.077701        2.606881       -0.618975
C          -0.917100        1.117897        0.825941
H          -0.938511       -0.780353        2.311092
C          -0.902662       -0.302676        1.421492
H          -0.620228        1.947233        1.242687
C          -0.149272        1.564305       -0.176924
H          -0.624265        0.806713       -1.156726
H          -1.530183       -1.024880       -0.861896
16
reaction_000_gen_9_frame_0881
H           0.608097       -1.768302       -1.263288
C           0.910618       -0.928602       -0.504799
H           1.323324       -1.799072        0.241534
C           1.250798        0.768200       -0.402071
H           1.539645        0.447412        0.138840
H           1.788224        0.654874       -1.894113
H          -0.917870       -2.117368        0.723394
C          -0.922387       -1.202441        0.029790
H           0.082732        2.579991       -0.605945
C          -0.909859        1.109918        0.819245
H          -0.940311       -0.786950        2.315875
C          -0.886294       -0.284017        1.399278
H          -0.596435        1.937870        1.263352
C          -0.137747        1.600444       -0.225499
H          -0.642991        0.823609       -1.175203
H          -1.549544       -1.035566       -0.860389
16
reaction_000_gen_9_frame_0882
H           0.594042       -1.755685       -1.285139
C           0.937593       -0.978338       -0.487185
H           1.322619       -1.797974        0.263414
C           1.224990        0.749409       -0.374271
H           1.549495        0.431437        0.153168
H           1.792330        0.645792       -1.905879
H          -0.937370       -2.141373        0.717769
C          -0.914120       -1.206282        0.043873
H           0.098561        2.593477       -0.605051
C          -0.915530        1.138144        0.799881
H          -0.924923       -0.758418        2.302778
C          -0.902235       -0.245965        1.405561
H          -0.609320        1.959599        1.279314
C          -0.154467        1.620358       -0.241062
H          -0.653347        0.786037       -1.203115
H          -1.508318       -1.040217       -0.864056
16
reaction_000_gen_9_frame_0883
H           0.592393       -1.759057       -1.274273
C           0.944235       -1.006985       -0.451757
H           1.320781       -1.792904        0.274039
C           1.224776        0.769660       -0.345403
H           1.567259        0.469476        0.153272
H           1.782072        0.623817       -1.914426
H          -0.953022       -2.162008        0.735168
C          -0.894832       -1.192768        0.023117
H           0.104873        2.581073       -0.608993
C          -0.921769        1.142706        0.790760
H          -0.889259       -0.740368        2.277444
C          -0.879797       -0.240407        1.355179
H          -0.635378        1.943298        1.297270
C          -0.175225        1.649824       -0.259186
H          -0.646131        0.768848       -1.215000
H          -1.540980       -1.054203       -0.837210
16
reaction_000_gen_9_frame_0884
H           0.578669       -1.789716       -1.266015
C           0.964773       -1.064520       -0.463183
H           1.322538       -1.795197        0.261825
C           1.229681        0.762676       -0.348765
H           1.581566        0.471345        0.140245
H           1.749521        0.619266       -1.897889
H          -0.957609       -2.134555        0.727603
C          -0.908131       -1.183998        0.067588
H           0.080262        2.615528       -0.618079
C          -0.925252        1.161434        0.799541
H          -0.907668       -0.741873        2.274396
C          -0.855779       -0.214713        1.349657
H          -0.650863        1.949601        1.296534
C          -0.156816        1.626248       -0.289296
H          -0.612290        0.791698       -1.206707
H          -1.532602       -1.073223       -0.827454
16
reaction_000_gen_9_frame_0885
H           0.595530       -1.789243       -1.295569
C           0.952965       -1.061789       -0.466114
H           1.284997       -1.813652        0.280340
C           1.234532        0.777942       -0.345940
H           1.589172        0.449963        0.120629
H           1.725868        0.584882       -1.917288
H          -0.964777       -2.137514        0.706260
C          -0.897386       -1.185796        0.084545
H           0.093173        2.610423       -0.636811
C          -0.928370        1.194305        0.798044
H          -0.922089       -0.735314        2.309032
C          -0.834989       -0.235137        1.348423
H          -0.655695        1.941798        1.286165
C          -0.128883        1.620133       -0.260222
H          -0.618622        0.846731       -1.157247
H          -1.525427       -1.067732       -0.854247
16
reaction_000_gen_9_frame_0886
H           0.593390       -1.766226       -1.259807
C           0.933048       -1.046049       -0.478221
H           1.296703       -1.821514        0.284962
C           1.197027        0.785624       -0.365383
H           1.631064        0.441818        0.146038
H           1.716995        0.602711       -1.880578
H          -0.968705       -2.134187        0.697855
C          -0.910394       -1.180909        0.096967
H           0.096142        2.609422       -0.625583
C          -0.933604        1.194094        0.787033
H          -0.968997       -0.725361        2.281299
C          -0.831917       -0.256790        1.368489
H          -0.657088        1.930851        1.244191
C          -0.067085        1.588440       -0.277762
H          -0.590146        0.827298       -1.187094
H          -1.536432       -1.049222       -0.832406
16
reaction_000_gen_9_frame_0887
H           0.572435       -1.740386       -1.259344
C           0.945906       -1.063944       -0.489418
H           1.315574       -1.861235        0.272378
C           1.183747        0.776207       -0.376148
H           1.604020        0.442262        0.153072
H           1.712842        0.623838       -1.841320
H          -0.969804       -2.164800        0.686528
C          -0.859865       -1.179153        0.073756
H           0.071504        2.599656       -0.617006
C          -0.940639        1.183023        0.801799
H          -0.972756       -0.678160        2.276863
C          -0.817672       -0.230236        1.355512
H          -0.652065        1.923586        1.244591
C          -0.057307        1.557554       -0.257939
H          -0.603079        0.843100       -1.197721
H          -1.532841       -1.031312       -0.825602
16
reaction_000_gen_9_frame_0888
H           0.627064       -1.708959       -1.291503
C           0.901633       -1.085150       -0.530839
H           1.294151       -1.850719        0.250906
C           1.169747        0.763585       -0.354954
H           1.606956        0.449194        0.163727
H           1.736602        0.622843       -1.864374
H          -0.973981       -2.181834        0.674570
C          -0.869298       -1.184903        0.094447
H           0.060144        2.599969       -0.603518
C          -0.922675        1.181060        0.774942
H          -0.966393       -0.703735        2.298346
C          -0.829794       -0.248637        1.375646
H          -0.635003        1.914627        1.244962
C          -0.040685        1.557250       -0.272034
H          -0.631440        0.886232       -1.158455
H          -1.527030       -1.010824       -0.801871
16
reaction_000_gen_9_frame_0889
H           0.611409       -1.723948       -1.300442
C           0.882126       -1.059227       -0.582762
H           1.312853       -1.829631        0.266046
C           1.162209        0.783229       -0.345168
H           1.640163        0.409652        0.182585
H           1.739616        0.588531       -1.881670
H          -0.971458       -2.171541        0.682961
C          -0.865536       -1.198247        0.128200
H           0.072255        2.591635       -0.616749
C          -0.912848        1.213974        0.762128
H          -0.987103       -0.704136        2.296578
C          -0.817916       -0.226246        1.364299
H          -0.621486        1.906744        1.248706
C          -0.056615        1.552819       -0.277857
H          -0.648214        0.893141       -1.128957
H          -1.539456       -1.026748       -0.797897
16
reaction_000_gen_9_frame_0890
H           0.606351       -1.709160       -1.301353
C           0.885886       -1.068301       -0.582047
H           1.328655       -1.778254        0.238574
C           1.168969        0.768232       -0.318130
H           1.673224        0.405861        0.204711
H           1.755802        0.600886       -1.854424
H          -0.938306       -2.169136        0.705697
C          -0.906226       -1.214411        0.084451
H           0.069853        2.566528       -0.592894
C          -0.899110        1.225503        0.730664
H          -1.004613       -0.711287        2.270075
C          -0.820414       -0.269523        1.355931
H          -0.645071        1.901981        1.258188
C          -0.038422        1.558083       -0.287825
H          -0.672162        0.923087       -1.133336
H          -1.564416       -1.030089       -0.778283
16
reaction_000_gen_9_frame_0891
H           0.602560       -1.713142       -1.316404
C           0.877090       -1.063175       -0.590734
H           1.308076       -1.768555        0.231653
C           1.147998        0.777415       -0.321453
H           1.656246        0.410730        0.197242
H           1.767938        0.616059       -1.808982
H          -0.922672       -2.203727        0.745860
C          -0.924419       -1.218403        0.095973
H           0.093559        2.561795       -0.581017
C          -0.876903        1.225528        0.707348
H          -1.007177       -0.716089        2.265565
C          -0.823147       -0.264252        1.364411
H          -0.643273        1.889619        1.236995
C          -0.035242        1.552757       -0.292673
H          -0.666798        0.930380       -1.163888
H          -1.553835       -1.016939       -0.769896
16
reaction_000_gen_9_frame_0892
H           0.620460       -1.682457       -1.322438
C           0.892270       -1.081181       -0.572555
H           1.318651       -1.756218        0.211520
C           1.112748        0.767285       -0.311502
H           1.692871        0.383152        0.183089
H           1.751576        0.639556       -1.823155
H          -0.925933       -2.183860        0.708269
C          -0.920915       -1.195126        0.082493
H           0.062320        2.556793       -0.573998
C          -0.919924        1.204013        0.726763
H          -0.973838       -0.695128        2.300750
C          -0.847711       -0.280436        1.373889
H          -0.636895        1.870551        1.243619
C          -0.029897        1.528473       -0.282428
H          -0.657344        0.952182       -1.166276
H          -1.538440       -1.027599       -0.778040
16
reaction_000_gen_9_frame_0893
H           0.630861       -1.651394       -1.334308
C           0.865824       -1.059864       -0.567703
H           1.346584       -1.782650        0.203830
C           1.117188        0.742668       -0.329031
H           1.680131        0.383666        0.190449
H           1.718958        0.668993       -1.796744
H          -0.922576       -2.187903        0.709410
C          -0.915506       -1.224970        0.113781
H           0.051534        2.553700       -0.550460
C          -0.894993        1.202207        0.697321
H          -0.976673       -0.694872        2.300239
C          -0.834183       -0.296326        1.360980
H          -0.646196        1.872625        1.244950
C          -0.028164        1.540856       -0.303997
H          -0.652634        0.962989       -1.196243
H          -1.540155       -1.029726       -0.742475
16
reaction_000_gen_9_frame_0894
H           0.623021       -1.684193       -1.317167
C           0.884481       -1.064041       -0.593331
H           1.364318       -1.746274        0.193714
C           1.134202        0.724621       -0.300340
H           1.676254        0.429680        0.152838
H           1.694059        0.695002       -1.784193
H          -0.951639       -2.169621        0.683216
C          -0.904461       -1.213524        0.143245
H           0.036302        2.512271       -0.530086
C          -0.884997        1.187691        0.686897
H          -0.980932       -0.712307        2.287979
C          -0.853956       -0.320437        1.372565
H          -0.664984        1.847449        1.247982
C           0.010372        1.565830       -0.317692
H          -0.639741        0.944734       -1.176825
H          -1.542300       -0.996881       -0.748801
16
reaction_000_gen_9_frame_0895
H           0.622800       -1.665114       -1.305281
C           0.878683       -1.068498       -0.567388
H           1.337248       -1.740480        0.183606
C           1.179567        0.687026       -0.285968
H           1.724844        0.429545        0.141671
H           1.655886        0.678469       -1.766196
H          -0.990203       -2.145689        0.677922
C          -0.895256       -1.233125        0.137767
H           0.040893        2.494310       -0.540463
C          -0.935210        1.175982        0.676177
H          -0.973218       -0.672203        2.277604
C          -0.874196       -0.303644        1.358323
H          -0.643376        1.853905        1.285011
C           0.037577        1.584777       -0.326632
H          -0.664203        0.924740       -1.175613
H          -1.501836       -0.999999       -0.770540
16
reaction_000_gen_9_frame_0896
H           0.589328       -1.664420       -1.294206
C           0.907487       -1.071198       -0.579269
H           1.350361       -1.727700        0.154959
C           1.144060        0.708980       -0.283534
H           1.738510        0.426090        0.161322
H           1.655312        0.665151       -1.784860
H          -1.010045       -2.180265        0.711973
C          -0.899054       -1.208875        0.119645
H           0.022749        2.499402       -0.540678
C          -0.926242        1.206490        0.672798
H          -0.975921       -0.676598        2.312024
C          -0.863938       -0.293167        1.368598
H          -0.624793        1.854046        1.295694
C           0.031336        1.582528       -0.329240
H          -0.626074        0.918320       -1.181976
H          -1.513077       -1.038784       -0.803248
16
reaction_000_gen_9_frame_0897
H           0.593506       -1.664888       -1.303737
C           0.938704       -1.061597       -0.594597
H           1.353093       -1.718430        0.186642
C           1.144611        0.689272       -0.294333
H           1.712870        0.421908        0.136821
H           1.647115        0.675191       -1.745634
H          -0.985222       -2.182429        0.696796
C          -0.894703       -1.213296        0.116405
H           0.026626        2.495991       -0.515885
C          -0.932329        1.222688        0.677414
H          -1.032147       -0.660258        2.259987
C          -0.875229       -0.302944        1.355736
H          -0.622438        1.886301        1.282377
C           0.056663        1.553118       -0.308198
H          -0.623947        0.916058       -1.155427
H          -1.507172       -1.056684       -0.794367
16
reaction_000_gen_9_frame_0898
H           0.637021       -1.668563       -1.315973
C           0.935820       -1.041130       -0.559953
H           1.372202       -1.708518        0.241036
C           1.127734        0.669399       -0.306526
H           1.692994        0.432323        0.106276
H           1.634010        0.696205       -1.776232
H          -0.994864       -2.186983        0.684141
C          -0.918991       -1.249222        0.134041
H           0.052749        2.443903       -0.515973
C          -0.948006        1.195633        0.701110
H          -1.036342       -0.617997        2.262767
C          -0.874037       -0.270553        1.364641
H          -0.612411        1.868453        1.278614
C           0.067843        1.576965       -0.316666
H          -0.641196        0.916187       -1.176057
H          -1.494525       -1.056102       -0.805244
16
reaction_000_gen_9_frame_0899
H           0.639288       -1.633512       -1.326326
C           0.945694       -1.044414       -0.589275
H           1.339479       -1.711030        0.234633
C           1.125876        0.648059       -0.294826
H           1.665209        0.446392        0.097534
H           1.653767        0.722574       -1.760526
H          -0.972482       -2.190691        0.669896
C          -0.929119       -1.227708        0.136992
H           0.124440        2.484083       -0.491363
C          -0.917375        1.192346        0.701142
H          -1.057987       -0.599055        2.263770
C          -0.864011       -0.272528        1.367949
H          -0.598029        1.825508        1.290976
C           0.032065        1.543795       -0.323166
H          -0.672380        0.902271       -1.168473
H          -1.514435       -1.086089       -0.808938
16
reaction_000_gen_9_frame_0900
H           0.644834       -1.601275       -1.326045
C           0.891915       -1.065549       -0.590568
H           1.358261       -1.708730        0.213614
C           1.129231        0.660884       -0.309571
H           1.659758        0.474161        0.128276
H           1.625986        0.707242       -1.765848
H          -0.961350       -2.205814        0.677447
C          -0.901454       -1.241625        0.169082
H           0.134264        2.509774       -0.518928
C          -0.896554        1.164052        0.705626
H          -1.065220       -0.581135        2.262596
C          -0.904437       -0.262907        1.393723
H          -0.608166        1.805537        1.272323
C           0.019650        1.522127       -0.365497
H          -0.632149        0.897114       -1.143779
H          -1.494569       -1.073855       -0.802450
16
reaction_000_gen_9_frame_0901
H           0.664529       -1.615994       -1.315724
C           0.894766       -1.088273       -0.603001
H           1.337772       -1.695641        0.223801
C           1.133296        0.660656       -0.305670
H           1.668540        0.479801        0.163928
H           1.647215        0.699589       -1.768563
H          -0.949258       -2.192672        0.667525
C          -0.886546       -1.239021        0.193312
H           0.105138        2.499913       -0.531602
C          -0.913072        1.210032        0.720794
H          -1.073644       -0.607403        2.246555
C          -0.939779       -0.227220        1.393683
H          -0.585074        1.815819        1.281461
C           0.007823        1.497286       -0.397005
H          -0.635136        0.902406       -1.147774
H          -1.476572       -1.099278       -0.821719
16
reaction_000_gen_9_frame_0902
H           0.700946       -1.613264       -1.307750
C           0.901044       -1.089083       -0.623482
H           1.330203       -1.669262        0.269474
C           1.145129        0.640826       -0.303392
H           1.674346        0.471898        0.159720
H           1.626513        0.667562       -1.754195
H          -0.967345       -2.179412        0.678038
C          -0.917099       -1.216451        0.170552
H           0.107303        2.516170       -0.523493
C          -0.904288        1.188590        0.712386
H          -1.085701       -0.612618        2.223595
C          -0.960075       -0.204798        1.386142
H          -0.577205        1.824334        1.286598
C           0.004405        1.479626       -0.394482
H          -0.623084        0.898079       -1.111156
H          -1.455092       -1.102198       -0.868555
16
reaction_000_gen_9_frame_0903
H           0.706287       -1.613145       -1.273555
C           0.932391       -1.128063       -0.607241
H           1.341033       -1.692054        0.271822
C           1.139691        0.648033       -0.337673
H           1.705459        0.474663        0.134840
H           1.601820        0.694610       -1.751364
H          -0.965087       -2.185636        0.678242
C          -0.923077       -1.213982        0.177956
H           0.115871        2.492367       -0.523203
C          -0.915295        1.238846        0.746123
H          -1.094475       -0.603548        2.202944
C          -0.977455       -0.229182        1.353641
H          -0.568844        1.818641        1.301624
C           0.002703        1.530107       -0.414203
H          -0.624644        0.899063       -1.099396
H          -1.476377       -1.130719       -0.860557
16
reaction_000_gen_9_frame_0904
H           0.685930       -1.615461       -1.346247
C           0.913256       -1.158844       -0.604407
H           1.343536       -1.698300        0.297999
C           1.089413        0.629728       -0.352093
H           1.719615        0.497653        0.110866
H           1.610208        0.692804       -1.737664
H          -0.955659       -2.179854        0.683516
C          -0.924690       -1.214102        0.201398
H           0.105964        2.538013       -0.498674
C          -0.916617        1.241880        0.738733
H          -1.083561       -0.619694        2.172050
C          -0.995365       -0.236385        1.400998
H          -0.527042        1.816436        1.320760
C          -0.023908        1.521223       -0.398846
H          -0.596095        0.897653       -1.123312
H          -1.444985       -1.112751       -0.865077
16
reaction_000_gen_9_frame_0905
H           0.693705       -1.623394       -1.358106
C           0.890636       -1.147921       -0.575798
H           1.358443       -1.696977        0.316932
C           1.097504        0.601068       -0.397577
H           1.744869        0.498606        0.073285
H           1.601121        0.699096       -1.722615
H          -0.953701       -2.170732        0.674581
C          -0.930738       -1.218263        0.235626
H           0.096349        2.540142       -0.496715
C          -0.902119        1.206069        0.754058
H          -1.096545       -0.560489        2.172838
C          -0.999386       -0.263983        1.384898
H          -0.540780        1.820943        1.315468
C           0.005430        1.514572       -0.411985
H          -0.616969        0.913775       -1.121193
H          -1.447817       -1.112510       -0.843697
16
reaction_000_gen_9_frame_0906
H           0.712349       -1.652941       -1.364200
C           0.901794       -1.161178       -0.541777
H           1.346264       -1.710749        0.292747
C           1.072146        0.620136       -0.406210
H           1.756518        0.490619        0.056188
H           1.576035        0.690043       -1.743914
H          -0.955744       -2.161188        0.683184
C          -0.925654       -1.211061        0.250533
H           0.104369        2.547074       -0.504776
C          -0.878371        1.196488        0.777478
H          -1.077556       -0.557083        2.147633
C          -1.023246       -0.227399        1.389759
H          -0.558887        1.825723        1.315588
C           0.016123        1.512018       -0.395265
H          -0.635470        0.893850       -1.104550
H          -1.430670       -1.094350       -0.852420
16
reaction_000_gen_9_frame_0907
H           0.711459       -1.644825       -1.337098
C           0.897688       -1.154538       -0.541007
H           1.396777       -1.682901        0.226112
C           1.078750        0.617239       -0.411160
H           1.749715        0.491811        0.041903
H           1.572588        0.702709       -1.743090
H          -0.978967       -2.162093        0.710175
C          -0.958007       -1.230410        0.261062
H           0.125398        2.522841       -0.528323
C          -0.893433        1.206816        0.793009
H          -1.073354       -0.559460        2.177893
C          -0.996106       -0.222871        1.401683
H          -0.569553        1.853224        1.315653
C          -0.017779        1.465013       -0.392419
H          -0.632221        0.902803       -1.125521
H          -1.412955       -1.105356       -0.848871
16
reaction_000_gen_9_frame_0908
H           0.699042       -1.629274       -1.349407
C           0.909327       -1.151097       -0.540832
H           1.418684       -1.705226        0.216555
C           1.084733        0.627100       -0.416710
H           1.771226        0.498068        0.052414
H           1.597789        0.641767       -1.727904
H          -0.982721       -2.158216        0.689697
C          -0.964623       -1.170961        0.281506
H           0.135261        2.535458       -0.505141
C          -0.886312        1.175501        0.773058
H          -1.096552       -0.548621        2.161796
C          -1.020356       -0.234069        1.382748
H          -0.587719        1.868084        1.318482
C          -0.012486        1.457128       -0.392525
H          -0.651806        0.901581       -1.121001
H          -1.413486       -1.107223       -0.822736
16
reaction_000_gen_9_frame_0909
H           0.681103       -1.645226       -1.376820
C           0.917574       -1.129623       -0.517216
H           1.424154       -1.667156        0.237158
C           1.099549        0.586676       -0.415765
H           1.781305        0.483105        0.055139
H           1.610740        0.638747       -1.727443
H          -0.978104       -2.155616        0.684795
C          -0.969345       -1.198668        0.280545
H           0.159658        2.533481       -0.504953
C          -0.884002        1.157504        0.759794
H          -1.123708       -0.537742        2.142518
C          -1.014722       -0.219042        1.402683
H          -0.584323        1.907211        1.340846
C          -0.020664        1.455767       -0.420679
H          -0.670980        0.913899       -1.112735
H          -1.428234       -1.123316       -0.827865
16
reaction_000_gen_9_frame_0910
H           0.689870       -1.617389       -1.363428
C           0.894080       -1.108736       -0.515861
H           1.450705       -1.653061        0.216096
C           1.078473        0.564615       -0.420945
H           1.759789        0.518153        0.080133
H           1.627534        0.627262       -1.744384
H          -0.981798       -2.149448        0.661883
C          -0.976933       -1.210001        0.322722
H           0.163167        2.525577       -0.485329
C          -0.850883        1.162237        0.762658
H          -1.141358       -0.555634        2.132794
C          -1.004911       -0.219673        1.404053
H          -0.552001        1.885677        1.323893
C          -0.042458        1.470054       -0.404002
H          -0.684477        0.912767       -1.133729
H          -1.428798       -1.152400       -0.836553
16
reaction_000_gen_9_frame_0911
H           0.713362       -1.622629       -1.374157
C           0.909146       -1.099486       -0.519791
H           1.428933       -1.701385        0.203764
C           1.050722        0.571975       -0.429836
H           1.775392        0.539069        0.075197
H           1.596470        0.652467       -1.741736
H          -0.968864       -2.167941        0.696199
C          -0.971285       -1.183073        0.376308
H           0.153149        2.526386       -0.498284
C          -0.833474        1.163470        0.736495
H          -1.122745       -0.552674        2.118809
C          -0.969752       -0.217234        1.416966
H          -0.580614        1.838989        1.366121
C          -0.028760        1.478756       -0.405956
H          -0.704099        0.943066       -1.148940
H          -1.447581       -1.169755       -0.871160
16
reaction_000_gen_9_frame_0912
H           0.715767       -1.642018       -1.384663
C           0.912070       -1.127462       -0.501213
H           1.387598       -1.704087        0.227303
C           1.047832        0.596916       -0.440717
H           1.786068        0.513207        0.065427
H           1.639980        0.647314       -1.741735
H          -0.944892       -2.151544        0.707162
C          -0.995241       -1.171774        0.377097
H           0.127907        2.505390       -0.523811
C          -0.837281        1.149044        0.752210
H          -1.115657       -0.542159        2.117007
C          -0.967199       -0.174177        1.406507
H          -0.601648        1.849454        1.400068
C          -0.010666        1.471541       -0.403005
H          -0.685515        0.938050       -1.175343
H          -1.459122       -1.157696       -0.882296
16
reaction_000_gen_9_frame_0913
H           0.715813       -1.661545       -1.463243
C           0.907503       -1.117605       -0.520972
H           1.387907       -1.724361        0.245892
C           1.064822        0.615187       -0.474121
H           1.807824        0.544183        0.089633
H           1.634785        0.640154       -1.735551
H          -0.949776       -2.118347        0.721266
C          -0.974795       -1.198184        0.357122
H           0.134765        2.472650       -0.511149
C          -0.820995        1.167840        0.755631
H          -1.111179       -0.555698        2.131140
C          -0.985372       -0.189657        1.421818
H          -0.615922        1.868736        1.428444
C          -0.015585        1.472640       -0.384013
H          -0.723915        0.944473       -1.208708
H          -1.455882       -1.160465       -0.853187
16
reaction_000_gen_9_frame_0914
H           0.734938       -1.653235       -1.445419
C           0.903403       -1.124028       -0.543988
H           1.396128       -1.707701        0.224139
C           1.060189        0.593637       -0.496368
H           1.819070        0.542824        0.106150
H           1.642557        0.659091       -1.735299
H          -0.955854       -2.113182        0.695060
C          -0.993296       -1.218050        0.358698
H           0.139752        2.473666       -0.481735
C          -0.803280        1.146065        0.764530
H          -1.118242       -0.549339        2.139319
C          -0.985795       -0.190364        1.392247
H          -0.631398        1.898219        1.438039
C          -0.026801        1.469352       -0.399357
H          -0.731140        0.941507       -1.203363
H          -1.450231       -1.168460       -0.812653
16
reaction_000_gen_9_frame_0915
H           0.726767       -1.676079       -1.457648
C           0.885745       -1.111230       -0.541203
H           1.364354       -1.732616        0.218709
C           1.054023        0.577347       -0.508041
H           1.796395        0.539068        0.111313
H           1.636856        0.643322       -1.724817
H          -0.965543       -2.104168        0.668348
C          -0.986763       -1.208076        0.385924
H           0.160779        2.465907       -0.489608
C          -0.806297        1.170732        0.743562
H          -1.061561       -0.566022        2.182410
C          -1.003415       -0.171723        1.390967
H          -0.577293        1.880105        1.446395
C          -0.037712        1.475354       -0.409311
H          -0.732252        0.963226       -1.178780
H          -1.454085       -1.145146       -0.838221
16
reaction_000_gen_9_frame_0916
H           0.733441       -1.664044       -1.463426
C           0.899408       -1.105721       -0.531899
H           1.335848       -1.736043        0.212355
C           1.059804        0.558924       -0.492103
H           1.758256        0.547412        0.103529
H           1.617610        0.643229       -1.757022
H          -0.959009       -2.080976        0.660888
C          -0.981824       -1.207476        0.402400
H           0.171758        2.486018       -0.509101
C          -0.783516        1.198196        0.767137
H          -1.082952       -0.543232        2.173295
C          -1.009411       -0.186141        1.395802
H          -0.563452        1.860530        1.452246
C          -0.025966        1.469923       -0.390331
H          -0.727907        0.943061       -1.180880
H          -1.442087       -1.183660       -0.842888
16
reaction_000_gen_9_frame_0917
H           0.744426       -1.647647       -1.483725
C           0.885065       -1.093567       -0.537812
H           1.324176       -1.723401        0.234783
C           1.080648        0.528514       -0.466159
H           1.789104        0.567612        0.094089
H           1.641612        0.661966       -1.739944
H          -0.943322       -2.082762        0.675891
C          -1.001574       -1.173114        0.388733
H           0.161457        2.455775       -0.540520
C          -0.790627        1.193918        0.771411
H          -1.080881       -0.542929        2.164659
C          -1.024758       -0.220509        1.405967
H          -0.585731        1.861102        1.452835
C          -0.069271        1.448321       -0.407169
H          -0.695120        0.951563       -1.194153
H          -1.435202       -1.184843       -0.818885
16
reaction_000_gen_9_frame_0918
H           0.744222       -1.675141       -1.459509
C           0.912135       -1.094210       -0.550968
H           1.326245       -1.715256        0.259309
C           1.090956        0.526950       -0.484661
H           1.767012        0.582011        0.052295
H           1.651779        0.673829       -1.703217
H          -0.955672       -2.088676        0.660690
C          -1.023520       -1.184247        0.394441
H           0.183264        2.445662       -0.571463
C          -0.799519        1.211628        0.780847
H          -1.093357       -0.527085        2.161602
C          -1.039039       -0.234470        1.390202
H          -0.589659        1.850691        1.466278
C          -0.040119        1.456432       -0.410106
H          -0.694500        0.954546       -1.173276
H          -1.440229       -1.182663       -0.812463
16
reaction_000_gen_9_frame_0919
H           0.729598       -1.643993       -1.464435
C           0.897117       -1.093099       -0.584819
H           1.328639       -1.740828        0.250502
C           1.109464        0.502818       -0.487165
H           1.774956        0.602403        0.040351
H           1.672688        0.680853       -1.678479
H          -0.976992       -2.103143        0.651946
C          -1.014330       -1.178009        0.382443
H           0.181942        2.444737       -0.560498
C          -0.785767        1.215770        0.825041
H          -1.135790       -0.534453        2.179686
C          -1.023341       -0.247207        1.393587
H          -0.586060        1.845955        1.464012
C          -0.074613        1.460826       -0.413882
H          -0.704034        0.961969       -1.183529
H          -1.393477       -1.174600       -0.814761
16
reaction_000_gen_9_frame_0920
H           0.718549       -1.632699       -1.495501
C           0.926033       -1.080431       -0.588579
H           1.340240       -1.732303        0.256305
C           1.124978        0.493580       -0.475402
H           1.784602        0.623385        0.048467
H           1.685857        0.651216       -1.638193
H          -0.993291       -2.095763        0.634331
C          -1.032230       -1.185303        0.354750
H           0.158779        2.438695       -0.535237
C          -0.797245        1.233790        0.809438
H          -1.141071       -0.533719        2.141368
C          -1.004408       -0.237969        1.423232
H          -0.608884        1.828284        1.468787
C          -0.085169        1.454266       -0.414490
H          -0.701579        0.952976       -1.179252
H          -1.375160       -1.178004       -0.810024
16
reaction_000_gen_9_frame_0921
H           0.726675       -1.638463       -1.478845
C           0.906481       -1.062221       -0.586387
H           1.372840       -1.760083        0.238494
C           1.114865        0.504017       -0.490164
H           1.804011        0.623294        0.055101
H           1.685707        0.694418       -1.622209
H          -0.997109       -2.129146        0.648468
C          -0.993858       -1.190086        0.332437
H           0.153695        2.462143       -0.531887
C          -0.808630        1.250612        0.790837
H          -1.167742       -0.571563        2.121929
C          -1.015778       -0.241064        1.472938
H          -0.613414        1.817162        1.468118
C          -0.093805        1.461521       -0.414073
H          -0.713498        0.952418       -1.184471
H          -1.360440       -1.172959       -0.820286
16
reaction_000_gen_9_frame_0922
H           0.702485       -1.624905       -1.471653
C           0.932704       -1.082414       -0.585677
H           1.377302       -1.772098        0.220410
C           1.134984        0.501135       -0.512919
H           1.804681        0.611551        0.068791
H           1.677172        0.671912       -1.636281
H          -1.007860       -2.126202        0.664654
C          -1.000693       -1.202863        0.340711
H           0.147715        2.446871       -0.555786
C          -0.817058        1.239497        0.797526
H          -1.175910       -0.549792        2.129780
C          -1.034203       -0.214171        1.460480
H          -0.594122        1.840814        1.488116
C          -0.073699        1.495206       -0.402558
H          -0.712010        0.955599       -1.185994
H          -1.361488       -1.190138       -0.819601
16
reaction_000_gen_9_frame_0923
H           0.687973       -1.628295       -1.477318
C           0.920413       -1.070213       -0.598128
H           1.420821       -1.793413        0.233406
C           1.122473        0.501622       -0.496361
H           1.772184        0.621343        0.092391
H           1.683951        0.671112       -1.638550
H          -1.000744       -2.143421        0.648007
C          -1.010199       -1.202844        0.337382
H           0.167335        2.444230       -0.568480
C          -0.782317        1.241783        0.788413
H          -1.165222       -0.529008        2.151917
C          -1.044051       -0.205408        1.449991
H          -0.592249        1.810138        1.513366
C          -0.098888        1.476246       -0.413942
H          -0.749985        0.937449       -1.206941
H          -1.331495       -1.131320       -0.815155
16
reaction_000_gen_9_frame_0924
H           0.702373       -1.617180       -1.443981
C           0.926568       -1.080355       -0.576667
H           1.434546       -1.787480        0.235487
C           1.121291        0.486769       -0.508066
H           1.775779        0.647108        0.101500
H           1.682010        0.662688       -1.664744
H          -1.016576       -2.123361        0.661866
C          -1.031857       -1.217176        0.334148
H           0.156729        2.415588       -0.584676
C          -0.782385        1.232655        0.769775
H          -1.133005       -0.532941        2.144068
C          -1.042665       -0.217795        1.445840
H          -0.591381        1.828076        1.510487
C          -0.106309        1.456018       -0.392512
H          -0.761238        0.964459       -1.201315
H          -1.333880       -1.117073       -0.831211
16
reaction_000_gen_9_frame_0925
H           0.710727       -1.611497       -1.444242
C           0.915815       -1.086765       -0.582481
H           1.415823       -1.782913        0.253408
C           1.126435        0.478599       -0.523854
H           1.758025        0.637219        0.122158
H           1.701535        0.652340       -1.662657
H          -1.035321       -2.147141        0.659064
C          -1.044373       -1.219888        0.322450
H           0.145624        2.405192       -0.575885
C          -0.778839        1.249220        0.753810
H          -1.104601       -0.517018        2.152902
C          -1.037893       -0.202086        1.430077
H          -0.557096        1.836956        1.512216
C          -0.105319        1.438920       -0.414334
H          -0.763225        0.958367       -1.188754
H          -1.347317       -1.089504       -0.813879
16
reaction_000_gen_9_frame_0926
H           0.717240       -1.630711       -1.431029
C           0.916305       -1.092275       -0.568632
H           1.391911       -1.803805        0.263633
C           1.155034        0.464306       -0.507588
H           1.782484        0.632153        0.129419
H           1.694760        0.643582       -1.682263
H          -1.042975       -2.165415        0.637970
C          -1.050604       -1.214955        0.329198
H           0.116692        2.446001       -0.556592
C          -0.779161        1.242658        0.757246
H          -1.078330       -0.502340        2.127480
C          -1.048631       -0.192853        1.429797
H          -0.549884        1.853308        1.530290
C          -0.110094        1.440667       -0.437606
H          -0.765056        0.955194       -1.227656
H          -1.349692       -1.075516       -0.793667
16
reaction_000_gen_9_frame_0927
H           0.722146       -1.644985       -1.445754
C           0.879064       -1.097787       -0.553728
H           1.407365       -1.817618        0.276239
C           1.165347        0.444342       -0.500931
H           1.779646        0.629266        0.116227
H           1.689742        0.624572       -1.665184
H          -1.033797       -2.131201        0.633225
C          -1.073737       -1.178164        0.327112
H           0.141452        2.429903       -0.531182
C          -0.778538        1.234551        0.733131
H          -1.068936       -0.508385        2.131073
C          -1.036517       -0.193521        1.435175
H          -0.529239        1.883235        1.536744
C          -0.113052        1.439977       -0.439450
H          -0.804785        0.963765       -1.253627
H          -1.346159       -1.077951       -0.799068
16
reaction_000_gen_9_frame_0928
H           0.701851       -1.645378       -1.420993
C           0.869885       -1.096730       -0.528165
H           1.419913       -1.831920        0.310472
C           1.163008        0.447900       -0.510254
H           1.769712        0.603998        0.145946
H           1.708785        0.626470       -1.687524
H          -1.064079       -2.130768        0.650316
C          -1.084481       -1.160545        0.316014
H           0.169446        2.438805       -0.519643
C          -0.758885        1.250215        0.707490
H          -1.049292       -0.547516        2.145373
C          -1.049844       -0.188246        1.383156
H          -0.508679        1.877976        1.538877
C          -0.123012        1.432129       -0.457795
H          -0.818330        0.977204       -1.267165
H          -1.345999       -1.053595       -0.806106
16
reaction_000_gen_9_frame_0929
H           0.702225       -1.652711       -1.419639
C           0.865973       -1.108711       -0.508287
H           1.409724       -1.816783        0.282426
C           1.156458        0.471767       -0.521806
H           1.800460        0.627033        0.153975
H           1.694299        0.638726       -1.693597
H          -1.056667       -2.165949        0.669250
C          -1.091414       -1.165507        0.292086
H           0.164239        2.436240       -0.490730
C          -0.749784        1.243567        0.704856
H          -1.041120       -0.540240        2.182512
C          -1.026657       -0.193309        1.359847
H          -0.504769        1.888420        1.515883
C          -0.129828        1.423766       -0.432306
H          -0.830797        0.976425       -1.298866
H          -1.362340       -1.062733       -0.795606
16
reaction_000_gen_9_frame_0930
H           0.700260       -1.643659       -1.452583
C           0.859564       -1.102189       -0.518694
H           1.414053       -1.828808        0.288252
C           1.157249        0.475038       -0.512299
H           1.817444        0.636434        0.179547
H           1.667561        0.642856       -1.696376
H          -1.045307       -2.179081        0.701864
C          -1.094165       -1.167393        0.300519
H           0.186145        2.427557       -0.505235
C          -0.737582        1.246274        0.725425
H          -1.031099       -0.529629        2.184195
C          -1.050317       -0.219470        1.339165
H          -0.521713        1.901731        1.520938
C          -0.129631        1.391662       -0.444327
H          -0.843284        1.003981       -1.317115
H          -1.349179       -1.055305       -0.793277
16
reaction_000_gen_9_frame_0931
H           0.706795       -1.657377       -1.442243
C           0.891769       -1.100803       -0.531065
H           1.396608       -1.812925        0.292659
C           1.158247        0.458607       -0.525863
H           1.832598        0.669385        0.187336
H           1.664352        0.655742       -1.701865
H          -1.056936       -2.175026        0.693492
C          -1.091680       -1.201434        0.324446
H           0.188027        2.429219       -0.527350
C          -0.773493        1.264713        0.744868
H          -1.018107       -0.514159        2.169124
C          -1.050559       -0.233600        1.350237
H          -0.537428        1.906682        1.494072
C          -0.128134        1.360885       -0.441819
H          -0.861409        1.010866       -1.299555
H          -1.320649       -1.060774       -0.786476
16
reaction_000_gen_9_frame_0932
H           0.699327       -1.667802       -1.446832
C           0.888934       -1.091974       -0.510699
H           1.402274       -1.800194        0.281743
C           1.161806        0.430519       -0.547922
H           1.844584        0.690155        0.208514
H           1.668446        0.661258       -1.700518
H          -1.095339       -2.165783        0.702945
C          -1.092521       -1.213646        0.329583
H           0.172447        2.413397       -0.529156
C          -0.770880        1.249888        0.719084
H          -0.983209       -0.476557        2.179834
C          -1.028310       -0.243452        1.337454
H          -0.550368        1.903876        1.509281
C          -0.111760        1.379535       -0.461422
H          -0.869051        0.996113       -1.290918
H          -1.336378       -1.065333       -0.780973
16
reaction_000_gen_9_frame_0933
H           0.714452       -1.657676       -1.451353
C           0.883679       -1.075331       -0.522284
H           1.418255       -1.794836        0.279883
C           1.152571        0.442851       -0.539080
H           1.847731        0.693055        0.211457
H           1.677697        0.663289       -1.690434
H          -1.120347       -2.154779        0.705671
C          -1.092850       -1.230517        0.344299
H           0.193126        2.403912       -0.521915
C          -0.769266        1.263395        0.726481
H          -0.989638       -0.484140        2.180464
C          -1.030080       -0.249605        1.309813
H          -0.552181        1.872030        1.538144
C          -0.110227        1.391982       -0.481821
H          -0.863962        0.997951       -1.301906
H          -1.358960       -1.081580       -0.787420
16
reaction_000_gen_9_frame_0934
H           0.719835       -1.649655       -1.453413
C           0.895367       -1.075963       -0.517849
H           1.429865       -1.797585        0.287191
C           1.152602        0.423808       -0.545237
H           1.854745        0.709290        0.194351
H           1.671692        0.659859       -1.709606
H          -1.122119       -2.139420        0.709313
C          -1.085362       -1.229280        0.360363
H           0.204388        2.396606       -0.518333
C          -0.770948        1.268607        0.747758
H          -0.989395       -0.487967        2.196237
C          -1.063351       -0.265487        1.299581
H          -0.569057        1.881434        1.527927
C          -0.106461        1.399460       -0.455188
H          -0.835075        1.000976       -1.309752
H          -1.386728       -1.094683       -0.813343
16
reaction_000_gen_9_frame_0935
H           0.745522       -1.638868       -1.448545
C           0.900740       -1.093034       -0.526555
H           1.440253       -1.787485        0.272507
C           1.161218        0.428736       -0.508322
H           1.853399        0.709023        0.155940
H           1.656647        0.638591       -1.696186
H          -1.114730       -2.133436        0.694693
C          -1.075540       -1.233285        0.355721
H           0.211033        2.400662       -0.511638
C          -0.776637        1.268621        0.751087
H          -1.008700       -0.489700        2.218929
C          -1.074504       -0.292987        1.296003
H          -0.572875        1.875865        1.546545
C          -0.074147        1.428974       -0.466918
H          -0.881701        0.984230       -1.297772
H          -1.389979       -1.065906       -0.835488
16
reaction_000_gen_9_frame_0936
H           0.742926       -1.614914       -1.447795
C           0.886447       -1.096776       -0.525602
H           1.448945       -1.781361        0.276404
C           1.189955        0.429731       -0.508803
H           1.853266        0.708314        0.148996
H           1.652217        0.630703       -1.695485
H          -1.109960       -2.130662        0.674709
C          -1.091795       -1.215707        0.349861
H           0.210470        2.402602       -0.526836
C          -0.753233        1.261998        0.738199
H          -1.015244       -0.519468        2.225940
C          -1.087203       -0.300433        1.300843
H          -0.574227        1.889342        1.545785
C          -0.090997        1.429788       -0.473688
H          -0.860482        0.982595       -1.261201
H          -1.401084       -1.075751       -0.821328
16
reaction_000_gen_9_frame_0937
H           0.735477       -1.629001       -1.452022
C           0.887662       -1.082783       -0.529432
H           1.457865       -1.790861        0.304109
C           1.205231        0.449316       -0.498664
H           1.865971        0.721325        0.178275
H           1.648712        0.629405       -1.728062
H          -1.081968       -2.145051        0.660098
C          -1.092986       -1.207435        0.356329
H           0.198102        2.369828       -0.528457
C          -0.756234        1.265962        0.741641
H          -1.038682       -0.487787        2.208852
C          -1.073337       -0.302528        1.323075
H          -0.579664        1.899923        1.546426
C          -0.097942        1.410934       -0.475075
H          -0.883081        0.985130       -1.258235
H          -1.395125       -1.086374       -0.848858
16
reaction_000_gen_9_frame_0938
H           0.732526       -1.628530       -1.437414
C           0.895364       -1.089980       -0.557096
H           1.445112       -1.785303        0.343565
C           1.212497        0.428398       -0.512661
H           1.862136        0.735992        0.176958
H           1.656204        0.633735       -1.733143
H          -1.076052       -2.157794        0.667392
C          -1.097684       -1.221244        0.342093
H           0.215503        2.351829       -0.534931
C          -0.761159        1.269039        0.759456
H          -1.047212       -0.494973        2.193048
C          -1.066007       -0.337235        1.316529
H          -0.577083        1.932030        1.531530
C          -0.103131        1.450950       -0.465506
H          -0.866910        0.998015       -1.256262
H          -1.424106       -1.084929       -0.833559
16
reaction_000_gen_9_frame_0939
H           0.750828       -1.627076       -1.422482
C           0.895776       -1.094033       -0.547937
H           1.440707       -1.749347        0.336686
C           1.198650        0.412153       -0.535823
H           1.870256        0.741886        0.205385
H           1.670414        0.642442       -1.718703
H          -1.070752       -2.178747        0.648352
C          -1.108201       -1.220235        0.351161
H           0.210964        2.346768       -0.543133
C          -0.777701        1.269174        0.767305
H          -1.068266       -0.482836        2.191765
C          -1.045083       -0.330238        1.317398
H          -0.575046        1.925861        1.530726
C          -0.114810        1.435474       -0.471243
H          -0.840394        1.009042       -1.270225
H          -1.437342       -1.100289       -0.839233
16
reaction_000_gen_9_frame_0940
H           0.772265       -1.624318       -1.422304
C           0.900242       -1.100909       -0.559040
H           1.452304       -1.725964        0.349829
C           1.183840        0.419521       -0.524998
H           1.875732        0.728746        0.165846
H           1.669134        0.634596       -1.736935
H          -1.089478       -2.181384        0.655337
C          -1.098380       -1.219804        0.344561
H           0.217742        2.364827       -0.523564
C          -0.787925        1.272220        0.776055
H          -1.062325       -0.483232        2.187483
C          -1.051162       -0.353786        1.311954
H          -0.566467        1.900433        1.544103
C          -0.130284        1.413568       -0.464001
H          -0.836615        1.037935       -1.268415
H          -1.448622       -1.082451       -0.835911
16
reaction_000_gen_9_frame_0941
H           0.784737       -1.627409       -1.417044
C           0.928446       -1.091278       -0.544702
H           1.452820       -1.729703        0.334797
C           1.187383        0.395124       -0.529615
H           1.884104        0.715521        0.164278
H           1.644791        0.665466       -1.753135
H          -1.090110       -2.204411        0.690922
C          -1.116624       -1.237189        0.345635
H           0.214890        2.371456       -0.555764
C          -0.786214        1.273078        0.776982
H          -1.047987       -0.488004        2.190046
C          -1.060577       -0.326521        1.312243
H          -0.578529        1.910258        1.528382
C          -0.130923        1.414122       -0.439406
H          -0.849477        1.038380       -1.262209
H          -1.436729       -1.078889       -0.841411
16
reaction_000_gen_9_frame_0942
H           0.799368       -1.644980       -1.416492
C           0.935113       -1.084204       -0.530838
H           1.468072       -1.751368        0.334957
C           1.151483        0.411561       -0.529429
H           1.879628        0.708590        0.164135
H           1.656565        0.634243       -1.748683
H          -1.108327       -2.212079        0.663375
C          -1.136676       -1.235292        0.331375
H           0.204760        2.363148       -0.545027
C          -0.746274        1.278352        0.765492
H          -1.065731       -0.459259        2.204684
C          -1.045085       -0.292950        1.309080
H          -0.582057        1.920019        1.525357
C          -0.118128        1.413944       -0.448936
H          -0.860868        1.044425       -1.245587
H          -1.431841       -1.094152       -0.833464
16
reaction_000_gen_9_frame_0943
H           0.787397       -1.647049       -1.408505
C           0.949179       -1.085081       -0.516656
H           1.473505       -1.757082        0.326693
C           1.162868        0.403763       -0.528294
H           1.886115        0.713881        0.164702
H           1.641069        0.644520       -1.750479
H          -1.114863       -2.206499        0.650268
C          -1.134285       -1.221943        0.293165
H           0.196983        2.383484       -0.566256
C          -0.744154        1.252185        0.789978
H          -1.075906       -0.452936        2.249127
C          -1.037749       -0.265720        1.295390
H          -0.586668        1.899474        1.526090
C          -0.100888        1.384315       -0.432152
H          -0.830914        1.050789       -1.237765
H          -1.471689       -1.096102       -0.855306
16
reaction_000_gen_9_frame_0944
H           0.793369       -1.616226       -1.421286
C           0.938622       -1.075338       -0.517811
H           1.463532       -1.753030        0.341436
C           1.159419        0.389217       -0.537247
H           1.905959        0.707430        0.150993
H           1.660502        0.642270       -1.717226
H          -1.113715       -2.197690        0.644977
C          -1.140779       -1.228196        0.265679
H           0.196444        2.392403       -0.569609
C          -0.743449        1.267818        0.828450
H          -1.096150       -0.465747        2.240942
C          -1.041490       -0.263873        1.289914
H          -0.567589        1.894115        1.513478
C          -0.109842        1.385791       -0.402868
H          -0.851245        1.039307       -1.249935
H          -1.453588       -1.118250       -0.859890
16
reaction_000_gen_9_frame_0945
H           0.821698       -1.614370       -1.428087
C           0.928704       -1.059515       -0.525402
H           1.458913       -1.730178        0.337716
C           1.156108        0.362545       -0.547683
H           1.912487        0.735393        0.150748
H           1.639235        0.640347       -1.742654
H          -1.128890       -2.228629        0.656215
C          -1.138914       -1.220414        0.249812
H           0.201947        2.404874       -0.534913
C          -0.747927        1.247824        0.824828
H          -1.110415       -0.477791        2.233859
C          -1.033955       -0.258531        1.305207
H          -0.561593        1.885892        1.523430
C          -0.111297        1.385195       -0.404289
H          -0.858332        1.028569       -1.239130
H          -1.427770       -1.101211       -0.859657
16
reaction_000_gen_9_frame_0946
H           0.785768       -1.613879       -1.426489
C           0.962161       -1.066188       -0.515123
H           1.439336       -1.746788        0.347732
C           1.181655        0.365247       -0.560813
H           1.916784        0.737314        0.152647
H           1.608600        0.641560       -1.763094
H          -1.131263       -2.223819        0.677554
C          -1.112927       -1.235378        0.251909
H           0.225021        2.419096       -0.530596
C          -0.739947        1.243823        0.828123
H          -1.128951       -0.477821        2.225993
C          -1.055164       -0.242339        1.291021
H          -0.583582        1.884294        1.535461
C          -0.103118        1.400581       -0.423704
H          -0.856537        1.002943       -1.246310
H          -1.407835       -1.088649       -0.844310
16
reaction_000_gen_9_frame_0947
H           0.790488       -1.626593       -1.422467
C           0.973831       -1.078911       -0.537301
H           1.427270       -1.737586        0.354958
C           1.189047        0.356730       -0.566085
H           1.916688        0.730817        0.144463
H           1.616947        0.642719       -1.753368
H          -1.124920       -2.217807        0.670400
C          -1.099211       -1.247405        0.272111
H           0.236539        2.423379       -0.536618
C          -0.766555        1.246613        0.829298
H          -1.141507       -0.495183        2.228199
C          -1.059930       -0.238068        1.297402
H          -0.596343        1.896683        1.526912
C          -0.106157        1.417374       -0.417077
H          -0.853751        1.009904       -1.246957
H          -1.402435       -1.082665       -0.843869
16
reaction_000_gen_9_frame_0948
H           0.788976       -1.628521       -1.418866
C           0.958943       -1.097162       -0.524497
H           1.439462       -1.754735        0.365779
C           1.201001        0.342571       -0.579158
H           1.918792        0.743213        0.118135
H           1.607526        0.635502       -1.730301
H          -1.121912       -2.222173        0.662379
C          -1.121544       -1.249019        0.277442
H           0.240208        2.430000       -0.543749
C          -0.753365        1.237424        0.821550
H          -1.135483       -0.484167        2.246296
C          -1.096013       -0.215824        1.312867
H          -0.576505        1.891210        1.530113
C          -0.082582        1.413762       -0.425291
H          -0.857973        1.011548       -1.261672
H          -1.409530       -1.053631       -0.851027
16
reaction_000_gen_9_frame_0949
H           0.792797       -1.618160       -1.439899
C           0.970455       -1.108915       -0.529393
H           1.441234       -1.779788        0.370478
C           1.227155        0.342791       -0.594255
H           1.934733        0.735870        0.092689
H           1.560839        0.637592       -1.717607
H          -1.126778       -2.220040        0.665383
C          -1.120571       -1.224518        0.263788
H           0.229511        2.401400       -0.527384
C          -0.749303        1.242888        0.845174
H          -1.130997       -0.472572        2.251144
C          -1.114866       -0.232237        1.320848
H          -0.596483        1.897410        1.539659
C          -0.069258        1.434230       -0.412086
H          -0.853501        1.022694       -1.263647
H          -1.394967       -1.058643       -0.864892
16
reaction_000_gen_9_frame_0950
H           0.770174       -1.625343       -1.426998
C           0.954616       -1.119415       -0.553275
H           1.457117       -1.770440        0.388045
C           1.227777        0.349784       -0.573309
H           1.965473        0.720817        0.092493
H           1.565043        0.619350       -1.746696
H          -1.110030       -2.218084        0.668657
C          -1.122512       -1.226737        0.272330
H           0.218157        2.400169       -0.524908
C          -0.762509        1.240778        0.836218
H          -1.139575       -0.447830        2.231424
C          -1.123908       -0.221551        1.325919
H          -0.559559        1.899609        1.538939
C          -0.081335        1.434760       -0.418888
H          -0.867577        1.009966       -1.270898
H          -1.391352       -1.045833       -0.839051
16
reaction_000_gen_9_frame_0951
H           0.766718       -1.635047       -1.420265
C           0.971749       -1.103919       -0.545323
H           1.451183       -1.759874        0.393059
C           1.216088        0.350858       -0.568518
H           1.989678        0.720205        0.090626
H           1.569900        0.640614       -1.773611
H          -1.139541       -2.204533        0.665300
C          -1.122106       -1.245867        0.281474
H           0.215976        2.394964       -0.528680
C          -0.756114        1.225283        0.835687
H          -1.130177       -0.429476        2.238290
C          -1.115659       -0.234714        1.310215
H          -0.567320        1.907346        1.541558
C          -0.078311        1.400890       -0.410374
H          -0.883789        1.014975       -1.262068
H          -1.388275       -1.041704       -0.847371
16
reaction_000_gen_9_frame_0952
H           0.768744       -1.624509       -1.389036
C           0.985723       -1.124383       -0.549127
H           1.436218       -1.752875        0.407474
C           1.212517        0.334508       -0.552068
H           1.987276        0.702651        0.072310
H           1.565604        0.639376       -1.787905
H          -1.146391       -2.208892        0.650313
C          -1.115863       -1.237896        0.298385
H           0.246069        2.376420       -0.516731
C          -0.740504        1.231821        0.847007
H          -1.135918       -0.439201        2.260962
C          -1.121553       -0.227753        1.279970
H          -0.567288        1.925170        1.528143
C          -0.099077        1.417703       -0.419844
H          -0.882577        1.021710       -1.288600
H          -1.392980       -1.033850       -0.841254
16
reaction_000_gen_9_frame_0953
H           0.764228       -1.640598       -1.363479
C           0.981460       -1.095856       -0.527970
H           1.424337       -1.742992        0.407737
C           1.219970        0.337402       -0.566302
H           1.996811        0.697410        0.062815
H           1.555778        0.635052       -1.775101
H          -1.143927       -2.203444        0.636175
C          -1.100415       -1.235115        0.307172
H           0.240346        2.353613       -0.519812
C          -0.728072        1.226676        0.836432
H          -1.129784       -0.441998        2.269066
C          -1.136765       -0.212759        1.268241
H          -0.562198        1.930283        1.526898
C          -0.104678        1.419216       -0.421562
H          -0.873386        1.016952       -1.286375
H          -1.403703       -1.043843       -0.853935
16
reaction_000_gen_9_frame_0954
H           0.770344       -1.657149       -1.349618
C           0.973677       -1.113142       -0.525781
H           1.409911       -1.758782        0.413892
C           1.226192        0.323974       -0.576772
H           1.987955        0.694272        0.060616
H           1.571568        0.635968       -1.783987
H          -1.172282       -2.208552        0.647521
C          -1.104002       -1.200020        0.306448
H           0.239991        2.363252       -0.507002
C          -0.732382        1.227995        0.830199
H          -1.111449       -0.433155        2.266602
C          -1.129254       -0.212206        1.284722
H          -0.572318        1.949323        1.533732
C          -0.105417        1.412104       -0.445745
H          -0.858013        1.014334       -1.294090
H          -1.394521       -1.038216       -0.860738
16
reaction_000_gen_9_frame_0955
H           0.759160       -1.673562       -1.348175
C           0.962431       -1.115407       -0.531611
H           1.404834       -1.756707        0.410270
C           1.250026        0.320271       -0.607296
H           1.990362        0.706421        0.087668
H           1.579549        0.628339       -1.765024
H          -1.182671       -2.194323        0.633589
C          -1.115210       -1.207087        0.310477
H           0.217471        2.352859       -0.525837
C          -0.737482        1.237883        0.843456
H          -1.110969       -0.435748        2.252791
C          -1.101221       -0.212486        1.257333
H          -0.566780        1.932241        1.565646
C          -0.120812        1.403058       -0.424926
H          -0.837395        1.033980       -1.306172
H          -1.391293       -1.019733       -0.852190
16
reaction_000_gen_9_frame_0956
H           0.742992       -1.691439       -1.343927
C           0.962981       -1.114122       -0.516755
H           1.407993       -1.749741        0.426905
C           1.260622        0.304398       -0.623219
H           1.982136        0.724286        0.069393
H           1.586624        0.630046       -1.781966
H          -1.200781       -2.181709        0.625988
C          -1.088425       -1.209347        0.297238
H           0.224576        2.348759       -0.514953
C          -0.723175        1.250290        0.854046
H          -1.125693       -0.439992        2.243831
C          -1.095980       -0.207340        1.268069
H          -0.566408        1.912546        1.584587
C          -0.125486        1.432137       -0.424620
H          -0.828511        1.016357       -1.312131
H          -1.413464       -1.025130       -0.852485
16
reaction_000_gen_9_frame_0957
H           0.752093       -1.698771       -1.350195
C           0.944653       -1.102123       -0.520870
H           1.424675       -1.753477        0.391364
C           1.269759        0.304157       -0.614944
H           1.998693        0.714658        0.073422
H           1.581025        0.636839       -1.768055
H          -1.193602       -2.181965        0.626942
C          -1.101452       -1.215444        0.310425
H           0.224610        2.348972       -0.510763
C          -0.706215        1.243236        0.865583
H          -1.124091       -0.461092        2.250610
C          -1.085520       -0.195678        1.244772
H          -0.576006        1.924469        1.579700
C          -0.125986        1.451032       -0.431866
H          -0.864604        1.002745       -1.302871
H          -1.418031       -1.017559       -0.843254
16
reaction_000_gen_9_frame_0958
H           0.747945       -1.690405       -1.328842
C           0.945134       -1.106318       -0.500403
H           1.419472       -1.750709        0.366674
C           1.274108        0.286795       -0.625381
H           2.009508        0.713927        0.069282
H           1.579355        0.630682       -1.754565
H          -1.198678       -2.168307        0.625812
C          -1.092003       -1.215489        0.296067
H           0.214645        2.361521       -0.525689
C          -0.703730        1.219449        0.864810
H          -1.121500       -0.452206        2.243335
C          -1.081022       -0.181166        1.249502
H          -0.575534        1.916309        1.593868
C          -0.125225        1.458380       -0.439789
H          -0.874393        1.001877       -1.292829
H          -1.418082       -1.024338       -0.841853
16
reaction_000_gen_9_frame_0959
H           0.746363       -1.692359       -1.326368
C           0.952685       -1.143950       -0.502734
H           1.394510       -1.743798        0.364522
C           1.272504        0.300320       -0.618837
H           1.997476        0.700694        0.048842
H           1.573029        0.618423       -1.740994
H          -1.212890       -2.173039        0.628299
C          -1.057820       -1.213093        0.294708
H           0.226516        2.382678       -0.529154
C          -0.681109        1.224510        0.858993
H          -1.138186       -0.453553        2.240120
C          -1.063735       -0.180163        1.245224
H          -0.576663        1.927649        1.604494
C          -0.143082        1.457696       -0.451735
H          -0.874252        1.006704       -1.285183
H          -1.415347       -1.018720       -0.830199
16
reaction_000_gen_9_frame_0960
H           0.748929       -1.680399       -1.342954
C           0.951407       -1.137267       -0.507366
H           1.396692       -1.748518        0.378360
C           1.269623        0.283092       -0.636858
H           2.001515        0.689352        0.050763
H           1.566502        0.617230       -1.706305
H          -1.219526       -2.159679        0.610085
C          -1.052742       -1.208952        0.302677
H           0.229739        2.377861       -0.526642
C          -0.657694        1.229010        0.840187
H          -1.148915       -0.465443        2.255699
C          -1.092264       -0.186057        1.250027
H          -0.598982        1.918310        1.602216
C          -0.136508        1.452935       -0.470704
H          -0.860219        1.029929       -1.280224
H          -1.397556       -1.011404       -0.818961
16
reaction_000_gen_9_frame_0961
H           0.754210       -1.685916       -1.327101
C           0.950191       -1.131196       -0.527201
H           1.404150       -1.738724        0.386063
C           1.264014        0.290738       -0.642129
H           1.998322        0.671735        0.062895
H           1.559377        0.638474       -1.700909
H          -1.228890       -2.163759        0.606518
C          -1.059877       -1.218902        0.301413
H           0.208521        2.388023       -0.527891
C          -0.658012        1.240780        0.848059
H          -1.143473       -0.461612        2.241272
C          -1.107756       -0.183987        1.218654
H          -0.589748        1.903249        1.608821
C          -0.137925        1.448221       -0.466559
H          -0.830542        1.013771       -1.276533
H          -1.382559       -1.010895       -0.805374
16
reaction_000_gen_9_frame_0962
H           0.753340       -1.719711       -1.351325
C           0.939135       -1.150967       -0.515359
H           1.390503       -1.728523        0.394583
C           1.279480        0.300013       -0.636364
H           1.977661        0.671160        0.061988
H           1.558994        0.639895       -1.679189
H          -1.225805       -2.159708        0.607191
C          -1.063411       -1.229685        0.292085
H           0.226240        2.389931       -0.547262
C          -0.650434        1.233245        0.844793
H          -1.148843       -0.462161        2.258564
C          -1.109528       -0.182893        1.242161
H          -0.583368        1.927362        1.616571
C          -0.131971        1.474719       -0.477640
H          -0.833898        1.007692       -1.289412
H          -1.378097       -1.010368       -0.821385
16
reaction_000_gen_9_frame_0963
H           0.775032       -1.712612       -1.344367
C           0.946907       -1.171345       -0.495195
H           1.382618       -1.720244        0.375914
C           1.281827        0.304343       -0.655465
H           1.980007        0.647244        0.083160
H           1.556643        0.619007       -1.682745
H          -1.240664       -2.157459        0.618256
C          -1.057183       -1.221637        0.299534
H           0.207818        2.377946       -0.558491
C          -0.656689        1.240040        0.836899
H          -1.146535       -0.428435        2.258422
C          -1.114416       -0.194400        1.229253
H          -0.560504        1.929626        1.603494
C          -0.142344        1.462211       -0.469836
H          -0.830500        1.017505       -1.296423
H          -1.382018       -0.991790       -0.802410
16
reaction_000_gen_9_frame_0964
H           0.767901       -1.726648       -1.344152
C           0.928740       -1.168413       -0.494398
H           1.379518       -1.704118        0.381960
C           1.271863        0.292493       -0.649203
H           1.971861        0.647822        0.088316
H           1.562069        0.621837       -1.680391
H          -1.253901       -2.162752        0.612087
C          -1.036652       -1.230206        0.306242
H           0.195344        2.392344       -0.549458
C          -0.670579        1.228769        0.823490
H          -1.149846       -0.436924        2.263918
C          -1.088242       -0.206441        1.219707
H          -0.548851        1.925210        1.615606
C          -0.146498        1.469865       -0.481328
H          -0.806744        1.031007       -1.308874
H          -1.375982       -0.973846       -0.803521
16
reaction_000_gen_9_frame_0965
H           0.768262       -1.732438       -1.352068
C           0.927408       -1.166606       -0.486399
H           1.353986       -1.707405        0.406541
C           1.294807        0.301820       -0.655635
H           1.995497        0.660220        0.088246
H           1.545075        0.615282       -1.692683
H          -1.265348       -2.179897        0.613858
C          -1.029598       -1.223987        0.292096
H           0.198719        2.393942       -0.559923
C          -0.688742        1.227904        0.808912
H          -1.156748       -0.439945        2.269364
C          -1.082635       -0.195578        1.224025
H          -0.548022        1.926040        1.617867
C          -0.146806        1.454792       -0.472380
H          -0.793911        1.033717       -1.306805
H          -1.371946       -0.967862       -0.795017
16
reaction_000_gen_9_frame_0966
H           0.751197       -1.728076       -1.354555
C           0.937526       -1.167652       -0.486096
H           1.364829       -1.712415        0.392769
C           1.287643        0.306698       -0.680552
H           1.999742        0.677954        0.093374
H           1.556804        0.601880       -1.687878
H          -1.271552       -2.197364        0.625548
C          -1.030170       -1.238976        0.277625
H           0.191513        2.396159       -0.586289
C          -0.685706        1.233933        0.823237
H          -1.156926       -0.450245        2.282569
C          -1.089885       -0.209571        1.228819
H          -0.541071        1.929444        1.626694
C          -0.138227        1.471438       -0.454948
H          -0.789249        1.046400       -1.324720
H          -1.386467       -0.959606       -0.775595
16
reaction_000_gen_9_frame_0967
H           0.745471       -1.737037       -1.354907
C           0.933923       -1.172458       -0.465494
H           1.364293       -1.696802        0.384434
C           1.278277        0.306439       -0.675497
H           1.982747        0.687304        0.055877
H           1.547741        0.625981       -1.678034
H          -1.264354       -2.186894        0.640902
C          -1.027037       -1.240172        0.287113
H           0.195739        2.393534       -0.590088
C          -0.691052        1.234849        0.825441
H          -1.147322       -0.456477        2.283773
C          -1.086469       -0.210366        1.246891
H          -0.537235        1.916828        1.622391
C          -0.138958        1.464845       -0.464651
H          -0.782078        1.029132       -1.329652
H          -1.373687       -0.958705       -0.788499
16
reaction_000_gen_9_frame_0968
H           0.747540       -1.748356       -1.350728
C           0.935001       -1.174936       -0.458842
H           1.373237       -1.691218        0.387233
C           1.297946        0.322949       -0.691549
H           1.983279        0.704210        0.059122
H           1.557507        0.608838       -1.676672
H          -1.265346       -2.191949        0.648100
C          -1.055439       -1.218671        0.256469
H           0.203708        2.387885       -0.589887
C          -0.684757        1.213827        0.829871
H          -1.147886       -0.454717        2.304738
C          -1.107058       -0.206893        1.234640
H          -0.542138        1.913006        1.635682
C          -0.136445        1.469148       -0.472323
H          -0.771440        1.040110       -1.323516
H          -1.387709       -0.973233       -0.792338
16
reaction_000_gen_9_frame_0969
H           0.750029       -1.743145       -1.342060
C           0.940586       -1.158517       -0.464754
H           1.378442       -1.711627        0.387431
C           1.305724        0.297435       -0.697761
H           1.993952        0.723393        0.044659
H           1.562805        0.615702       -1.687663
H          -1.273232       -2.182772        0.659411
C          -1.078547       -1.208941        0.250266
H           0.193061        2.376762       -0.583713
C          -0.692649        1.206656        0.840256
H          -1.161263       -0.447858        2.313531
C          -1.111402       -0.206246        1.213568
H          -0.539196        1.908269        1.654929
C          -0.122284        1.477845       -0.470950
H          -0.779175        1.045448       -1.319906
H          -1.366850       -0.992405       -0.797245
16
reaction_000_gen_9_frame_0970
H           0.756291       -1.736621       -1.342425
C           0.951548       -1.144026       -0.464702
H           1.367884       -1.697716        0.374109
C           1.297299        0.302022       -0.689728
H           1.988578        0.703722        0.036172
H           1.550866        0.613915       -1.701160
H          -1.252286       -2.187371        0.647942
C          -1.065930       -1.229904        0.261949
H           0.194951        2.363823       -0.585598
C          -0.692385        1.217100        0.846035
H          -1.161796       -0.434802        2.314047
C          -1.115140       -0.193077        1.225787
H          -0.535103        1.881535        1.641203
C          -0.123808        1.475309       -0.463995
H          -0.776533        1.050169       -1.312914
H          -1.384436       -0.984077       -0.786722
16
reaction_000_gen_9_frame_0971
H           0.769679       -1.751876       -1.331090
C           0.959854       -1.147397       -0.478162
H           1.370473       -1.691128        0.365606
C           1.299307        0.297301       -0.689567
H           1.998000        0.692376        0.034707
H           1.559317        0.611472       -1.710806
H          -1.253757       -2.184559        0.643517
C          -1.063174       -1.216699        0.243380
H           0.171246        2.381933       -0.597469
C          -0.686995        1.216281        0.851999
H          -1.163518       -0.449590        2.305669
C          -1.111171       -0.193969        1.219647
H          -0.534850        1.885596        1.680348
C          -0.140329        1.475018       -0.447119
H          -0.774599        1.043583       -1.316004
H          -1.399483       -0.968342       -0.774654
16
reaction_000_gen_9_frame_0972
H           0.764118       -1.746662       -1.330069
C           0.956996       -1.135857       -0.475212
H           1.394441       -1.703609        0.369986
C           1.304407        0.292216       -0.685897
H           2.011669        0.702171        0.037836
H           1.539968        0.600942       -1.723761
H          -1.259506       -2.177294        0.633496
C          -1.059798       -1.216897        0.246121
H           0.158664        2.380661       -0.604206
C          -0.695577        1.208561        0.854013
H          -1.166646       -0.464420        2.314211
C          -1.109963       -0.184623        1.210124
H          -0.533723        1.885603        1.667333
C          -0.136199        1.468899       -0.440012
H          -0.766170        1.047378       -1.303433
H          -1.402683       -0.957070       -0.770531
16
reaction_000_gen_9_frame_0973
H           0.769080       -1.759200       -1.328620
C           0.954948       -1.139856       -0.476167
H           1.394801       -1.686482        0.374858
C           1.305180        0.291424       -0.673142
H           2.007355        0.692651        0.032858
H           1.533490        0.599395       -1.710074
H          -1.260701       -2.179033        0.621055
C          -1.060050       -1.209961        0.238021
H           0.168323        2.398242       -0.601142
C          -0.707578        1.202938        0.857536
H          -1.153952       -0.458455        2.324071
C          -1.111256       -0.195631        1.206281
H          -0.529551        1.887534        1.682154
C          -0.142670        1.462724       -0.462428
H          -0.772522        1.041376       -1.312617
H          -1.394899       -0.947667       -0.772643
16
reaction_000_gen_9_frame_0974
H           0.754571       -1.755787       -1.348190
C           0.958185       -1.135593       -0.481231
H           1.398703       -1.687734        0.378152
C           1.299657        0.279934       -0.679936
H           2.004090        0.677739        0.040967
H           1.555400        0.604289       -1.722609
H          -1.260203       -2.191636        0.627744
C          -1.057153       -1.202556        0.230107
H           0.166184        2.414023       -0.592951
C          -0.703031        1.204010        0.848981
H          -1.161006       -0.472067        2.333592
C          -1.101767       -0.184131        1.207670
H          -0.527771        1.899333        1.689588
C          -0.147983        1.450388       -0.464396
H          -0.775616        1.038299       -1.299505
H          -1.402260       -0.938511       -0.767982
16
reaction_000_gen_9_frame_0975
H           0.750121       -1.758687       -1.350514
C           0.942231       -1.125416       -0.500604
H           1.406150       -1.681490        0.384896
C           1.291447        0.285898       -0.696738
H           1.987573        0.699730        0.049555
H           1.560261        0.600330       -1.714427
H          -1.258228       -2.193763        0.604702
C          -1.054132       -1.220183        0.220553
H           0.157498        2.417956       -0.595908
C          -0.693603        1.196464        0.848222
H          -1.144902       -0.474690        2.334965
C          -1.088770       -0.193818        1.205472
H          -0.527144        1.912147        1.698732
C          -0.157577        1.451305       -0.441955
H          -0.780532        1.034454       -1.283833
H          -1.390391       -0.950238       -0.763117
16
reaction_000_gen_9_frame_0976
H           0.762967       -1.762458       -1.354604
C           0.941824       -1.119423       -0.487373
H           1.403608       -1.681093        0.365583
C           1.296386        0.279523       -0.692635
H           1.990055        0.707914        0.048695
H           1.562773        0.608450       -1.715685
H          -1.262976       -2.179288        0.593717
C          -1.090084       -1.225318        0.219224
H           0.137446        2.399025       -0.591528
C          -0.689864        1.188528        0.853796
H          -1.143949       -0.475282        2.330447
C          -1.078660       -0.189545        1.228310
H          -0.514720        1.910040        1.690575
C          -0.142790        1.444031       -0.448503
H          -0.775504        1.044494       -1.283224
H          -1.396513       -0.949598       -0.756794
16
reaction_000_gen_9_frame_0977
H           0.767066       -1.772124       -1.352363
C           0.966961       -1.117742       -0.494317
H           1.409813       -1.672683        0.390632
C           1.290862        0.271613       -0.682525
H           1.986366        0.718316        0.032813
H           1.541260        0.613620       -1.726324
H          -1.251996       -2.177273        0.584919
C          -1.097098       -1.215531        0.222993
H           0.141507        2.394326       -0.589462
C          -0.690671        1.179909        0.860778
H          -1.149526       -0.469422        2.325091
C          -1.085750       -0.181984        1.222823
H          -0.519171        1.899935        1.694475
C          -0.150201        1.444243       -0.458947
H          -0.766482        1.033183       -1.284009
H          -1.392941       -0.948387       -0.746575
16
reaction_000_gen_9_frame_0978
H           0.772916       -1.770534       -1.358857
C           0.971052       -1.124583       -0.489589
H           1.405629       -1.674379        0.389732
C           1.291639        0.272588       -0.677420
H           1.978274        0.706394        0.028792
H           1.532161        0.618472       -1.732803
H          -1.241915       -2.170831        0.590183
C          -1.081578       -1.226435        0.225592
H           0.142437        2.399567       -0.586548
C          -0.690337        1.174906        0.865709
H          -1.152776       -0.444425        2.325196
C          -1.083540       -0.176660        1.221132
H          -0.530216        1.903786        1.694010
C          -0.170111        1.443073       -0.454924
H          -0.762893        1.025529       -1.295671
H          -1.380741       -0.956471       -0.744534
16
reaction_000_gen_9_frame_0979
H           0.771846       -1.753908       -1.376385
C           0.970628       -1.114812       -0.492789
H           1.399732       -1.663516        0.377645
C           1.293733        0.259997       -0.666158
H           1.969776        0.718908        0.030806
H           1.531420        0.602339       -1.728543
H          -1.237877       -2.170549        0.582636
C          -1.080009       -1.230359        0.230053
H           0.147216        2.395939       -0.589023
C          -0.702448        1.163188        0.869682
H          -1.152520       -0.449963        2.326883
C          -1.071529       -0.185184        1.218418
H          -0.529579        1.895284        1.702343
C          -0.169843        1.449029       -0.451653
H          -0.762434        1.031760       -1.300237
H          -1.378114       -0.948153       -0.733678
16
reaction_000_gen_9_frame_0980
H           0.763402       -1.755113       -1.363943
C           0.968687       -1.117140       -0.486187
H           1.379648       -1.656847        0.379327
C           1.301387        0.241582       -0.670168
H           1.974471        0.727873        0.030633
H           1.524670        0.610573       -1.719335
H          -1.227397       -2.188973        0.591649
C          -1.064232       -1.230345        0.239975
H           0.151431        2.409445       -0.593222
C          -0.704941        1.180782        0.859884
H          -1.151380       -0.456316        2.319393
C          -1.079834       -0.190347        1.215940
H          -0.525704        1.887712        1.698572
C          -0.173241        1.445538       -0.452700
H          -0.763064        1.042965       -1.309443
H          -1.373904       -0.951389       -0.740375
16
reaction_000_gen_9_frame_0981
H           0.761045       -1.758384       -1.357587
C           0.977743       -1.130677       -0.484683
H           1.374105       -1.648985        0.375005
C           1.304634        0.242029       -0.673758
H           1.970840        0.725133        0.047333
H           1.526915        0.607437       -1.709206
H          -1.215736       -2.189401        0.581016
C          -1.068251       -1.231973        0.240697
H           0.159826        2.425284       -0.585540
C          -0.692722        1.172656        0.858680
H          -1.157681       -0.459147        2.306685
C          -1.087272       -0.187042        1.220869
H          -0.528516        1.889249        1.687284
C          -0.179431        1.445931       -0.447166
H          -0.770434        1.050376       -1.311341
H          -1.375064       -0.952485       -0.748289
16
reaction_000_gen_9_frame_0982
H           0.750754       -1.760984       -1.352483
C           0.972505       -1.114196       -0.480392
H           1.374849       -1.644183        0.382363
C           1.300730        0.234321       -0.678126
H           1.976553        0.747101        0.046822
H           1.536026        0.601180       -1.698900
H          -1.214863       -2.194934        0.572299
C          -1.071535       -1.228430        0.244581
H           0.157813        2.433543       -0.582249
C          -0.674241        1.177235        0.863139
H          -1.163408       -0.456763        2.297139
C          -1.088592       -0.192437        1.221078
H          -0.526941        1.887990        1.678422
C          -0.187697        1.436690       -0.461033
H          -0.775400        1.042077       -1.302511
H          -1.366552       -0.968210       -0.750149
16
reaction_000_gen_9_frame_0983
H           0.757208       -1.750553       -1.339995
C           0.968162       -1.113859       -0.466555
H           1.372839       -1.637479        0.388416
C           1.311697        0.243450       -0.688484
H           1.983891        0.737134        0.038478
H           1.536942        0.593095       -1.707536
H          -1.201355       -2.190629        0.564290
C          -1.059731       -1.211393        0.258985
H           0.164512        2.421128       -0.585659
C          -0.679123        1.171361        0.857465
H          -1.172862       -0.467765        2.286439
C          -1.093079       -0.188130        1.218415
H          -0.543175        1.866331        1.678179
C          -0.198207        1.446874       -0.458589
H          -0.780567        1.040400       -1.290536
H          -1.367152       -0.959965       -0.753312
16
reaction_000_gen_9_frame_0984
H           0.761068       -1.754549       -1.339985
C           0.973584       -1.103286       -0.457952
H           1.364643       -1.645671        0.398306
C           1.301947        0.247335       -0.699799
H           1.992946        0.732202        0.041145
H           1.528921        0.596252       -1.705148
H          -1.205033       -2.194597        0.564521
C          -1.052195       -1.191105        0.263893
H           0.168881        2.422623       -0.584288
C          -0.685411        1.157021        0.854035
H          -1.174291       -0.457005        2.281449
C          -1.089140       -0.189834        1.209351
H          -0.548865        1.867225        1.671005
C          -0.196800        1.443677       -0.460106
H          -0.777300        1.027480       -1.288479
H          -1.362956       -0.957768       -0.747948
16
reaction_000_gen_9_frame_0985
H           0.767765       -1.753065       -1.343030
C           0.980558       -1.096433       -0.454036
H           1.377506       -1.640262        0.387554
C           1.297498        0.235675       -0.700601
H           1.994582        0.730747        0.039620
H           1.530561        0.593846       -1.710407
H          -1.197891       -2.204190        0.562144
C          -1.059064       -1.194166        0.253714
H           0.154838        2.429233       -0.586921
C          -0.692163        1.166045        0.863119
H          -1.189903       -0.461381        2.274669
C          -1.083026       -0.191104        1.210613
H          -0.535738        1.861519        1.683661
C          -0.199226        1.436072       -0.445436
H          -0.771211        1.031482       -1.284071
H          -1.375086       -0.944019       -0.750592
16
reaction_000_gen_9_frame_0986
H           0.772213       -1.745963       -1.348966
C           0.978906       -1.095238       -0.452847
H           1.378536       -1.638414        0.399443
C           1.300469        0.233696       -0.699874
H           1.995774        0.742826        0.034679
H           1.510901        0.592431       -1.714189
H          -1.196375       -2.209722        0.573453
C          -1.061458       -1.197843        0.246580
H           0.154003        2.430610       -0.582539
C          -0.693794        1.162817        0.866689
H          -1.189837       -0.463628        2.266745
C          -1.076659       -0.179613        1.208427
H          -0.529776        1.855516        1.672570
C          -0.198743        1.439190       -0.438561
H          -0.766037        1.021929       -1.289248
H          -1.378122       -0.948595       -0.742360
16
reaction_000_gen_9_frame_0987
H           0.776829       -1.748654       -1.338959
C           0.980651       -1.098135       -0.452249
H           1.368438       -1.633836        0.392348
C           1.289254        0.226411       -0.701891
H           2.002413        0.739068        0.039568
H           1.511782        0.584965       -1.717772
H          -1.199564       -2.203054        0.566681
C          -1.055230       -1.197729        0.253034
H           0.163128        2.439952       -0.594336
C          -0.687400        1.163033        0.876694
H          -1.190377       -0.462243        2.270110
C          -1.074856       -0.175612        1.204518
H          -0.534990        1.851395        1.673194
C          -0.206046        1.440711       -0.433455
H          -0.763006        1.022991       -1.278513
H          -1.381027       -0.949261       -0.758973
16
reaction_000_gen_9_frame_0988
H           0.783997       -1.745169       -1.335555
C           0.981427       -1.102006       -0.452588
H           1.363236       -1.635275        0.394160
C           1.293788        0.227715       -0.696439
H           1.986231        0.742977        0.035179
H           1.509737        0.587877       -1.715624
H          -1.194050       -2.207959        0.563751
C          -1.053152       -1.194289        0.256975
H           0.163980        2.431128       -0.592851
C          -0.690686        1.160610        0.868677
H          -1.190979       -0.465577        2.251944
C          -1.070398       -0.170818        1.205351
H          -0.531185        1.854400        1.670956
C          -0.207503        1.434262       -0.424881
H          -0.760104        1.023288       -1.269490
H          -1.384339       -0.941166       -0.759565
16
reaction_000_gen_9_frame_0989
H           0.776624       -1.747984       -1.333437
C           0.980890       -1.107781       -0.452687
H           1.364622       -1.638127        0.399544
C           1.302918        0.234966       -0.695862
H           1.984064        0.744093        0.036866
H           1.506990        0.587698       -1.721347
H          -1.190763       -2.206871        0.560396
C          -1.055402       -1.197541        0.268350
H           0.171444        2.437955       -0.589499
C          -0.691669        1.157232        0.874355
H          -1.185203       -0.459279        2.257113
C          -1.072501       -0.171106        1.196231
H          -0.537292        1.850277        1.672240
C          -0.204294        1.440434       -0.432680
H          -0.766528        1.026414       -1.281425
H          -1.383897       -0.950380       -0.758157
16
reaction_000_gen_9_frame_0990
H           0.772796       -1.749488       -1.325933
C           0.986580       -1.107308       -0.453587
H           1.363985       -1.636348        0.405706
C           1.316866        0.229656       -0.701360
H           1.984676        0.731246        0.025688
H           1.516684        0.586047       -1.725673
H          -1.203548       -2.203755        0.563448
C          -1.057270       -1.193622        0.269139
H           0.164284        2.437101       -0.590782
C          -0.695278        1.150897        0.876069
H          -1.199583       -0.452394        2.264901
C          -1.068529       -0.161280        1.194302
H          -0.537714        1.849101        1.669873
C          -0.207199        1.434293       -0.431486
H          -0.762015        1.036899       -1.278863
H          -1.374735       -0.951044       -0.761442
16
reaction_000_gen_9_frame_0991
H           0.773747       -1.750367       -1.331042
C           0.991542       -1.105424       -0.462407
H           1.365392       -1.634948        0.409545
C           1.330661        0.230037       -0.693420
H           1.989668        0.728256        0.023244
H           1.522862        0.586052       -1.725817
H          -1.200774       -2.206581        0.568438
C          -1.057653       -1.192836        0.259012
H           0.157748        2.439039       -0.602434
C          -0.702855        1.146042        0.880116
H          -1.196817       -0.453406        2.273027
C          -1.076933       -0.169165        1.194640
H          -0.545175        1.865885        1.681876
C          -0.211070        1.433698       -0.432479
H          -0.764608        1.045261       -1.281173
H          -1.375736       -0.961543       -0.761127
16
reaction_000_gen_9_frame_0992
H           0.776964       -1.749617       -1.324118
C           0.993615       -1.111238       -0.462009
H           1.359095       -1.628257        0.409584
C           1.330164        0.231470       -0.686367
H           1.998931        0.722204        0.031988
H           1.518345        0.581436       -1.728983
H          -1.200735       -2.210233        0.563520
C          -1.059050       -1.193686        0.259773
H           0.153994        2.442094       -0.603341
C          -0.701393        1.147493        0.880940
H          -1.192283       -0.448192        2.270317
C          -1.081387       -0.163069        1.198424
H          -0.545750        1.869175        1.673702
C          -0.218660        1.429457       -0.445166
H          -0.771217        1.041094       -1.281121
H          -1.360633       -0.960132       -0.757143
16
reaction_000_gen_9_frame_0993
H           0.779777       -1.753574       -1.326961
C           0.994381       -1.105552       -0.463948
H           1.360265       -1.627562        0.407580
C           1.337699        0.228673       -0.677814
H           2.002899        0.719739        0.032776
H           1.514066        0.574369       -1.729074
H          -1.197737       -2.216604        0.569728
C          -1.058789       -1.194184        0.258575
H           0.155359        2.447973       -0.604935
C          -0.705613        1.143236        0.881249
H          -1.188819       -0.439603        2.264714
C          -1.081646       -0.163161        1.198215
H          -0.543070        1.868902        1.676288
C          -0.226252        1.441143       -0.444019
H          -0.780208        1.038170       -1.278474
H          -1.362311       -0.961964       -0.763903
16
reaction_000_gen_9_frame_0994
H           0.781099       -1.753929       -1.324684
C           1.001650       -1.099446       -0.465941
H           1.367436       -1.621591        0.412634
C           1.340991        0.231542       -0.683925
H           2.000523        0.713358        0.028829
H           1.513679        0.568751       -1.730206
H          -1.203566       -2.212563        0.568638
C          -1.060015       -1.191370        0.256363
H           0.159968        2.441855       -0.609250
C          -0.709552        1.139886        0.883095
H          -1.188560       -0.437206        2.267261
C          -1.080348       -0.160958        1.202594
H          -0.546969        1.877030        1.682040
C          -0.229456        1.432047       -0.445102
H          -0.786279        1.040561       -1.278549
H          -1.360601       -0.967967       -0.763797
16
reaction_000_gen_9_frame_0995
H           0.786725       -1.752412       -1.327902
C           0.998428       -1.099435       -0.471205
H           1.373598       -1.614128        0.411655
C           1.343858        0.232993       -0.688947
H           1.998613        0.721726        0.024818
H           1.514489        0.562809       -1.729702
H          -1.204703       -2.217950        0.565078
C          -1.052249       -1.188347        0.254151
H           0.158267        2.433204       -0.608841
C          -0.709085        1.143268        0.890718
H          -1.191504       -0.435070        2.267585
C          -1.082436       -0.162013        1.212037
H          -0.553796        1.868951        1.685948
C          -0.231773        1.435642       -0.439843
H          -0.788243        1.035630       -1.282517
H          -1.360189       -0.964869       -0.763036
16
reaction_000_gen_9_frame_0996
H           0.785531       -1.750235       -1.329503
C           0.999270       -1.105160       -0.466940
H           1.373927       -1.618080        0.417176
C           1.339286        0.238967       -0.695929
H           2.003832        0.722732        0.023935
H           1.515798        0.564711       -1.725288
H          -1.198377       -2.216200        0.568069
C          -1.057022       -1.189351        0.254827
H           0.160460        2.430325       -0.611139
C          -0.708244        1.144117        0.887927
H          -1.192834       -0.429347        2.268300
C          -1.082148       -0.163380        1.208856
H          -0.555291        1.872176        1.688370
C          -0.234450        1.434905       -0.436602
H          -0.786306        1.033268       -1.284203
H          -1.363433       -0.969448       -0.767853
16
reaction_000_gen_9_frame_0997
H           0.786985       -1.752672       -1.332590
C           1.002680       -1.105464       -0.469837
H           1.373834       -1.615508        0.419488
C           1.337725        0.242342       -0.699042
H           2.001298        0.720515        0.028460
H           1.513069        0.564479       -1.729028
H          -1.192927       -2.219828        0.570673
C          -1.061150       -1.188720        0.252915
H           0.161292        2.428914       -0.606825
C          -0.708272        1.145142        0.885406
H          -1.193317       -0.427311        2.264455
C          -1.079340       -0.159400        1.209413
H          -0.555704        1.873184        1.686278
C          -0.238035        1.434951       -0.431517
H          -0.783679        1.029690       -1.279821
H          -1.364457       -0.970314       -0.768428
16
reaction_000_gen_9_frame_0998
H           0.789748       -1.752928       -1.331503
C           1.001579       -1.103655       -0.473241
H           1.370070       -1.618470        0.417644
C           1.339410        0.243301       -0.697810
H           2.001956        0.719487        0.027923
H           1.512940        0.565729       -1.725989
H          -1.194902       -2.221718        0.570271
C          -1.059044       -1.184964        0.256108
H           0.160913        2.433103       -0.607975
C          -0.704558        1.141769        0.882507
H          -1.195596       -0.428203        2.262597
C          -1.081665       -0.158880        1.210468
H          -0.556194        1.873324        1.685686
C          -0.236984        1.432453       -0.432830
H          -0.782984        1.028595       -1.277518
H          -1.364690       -0.968941       -0.766337
16
reaction_000_gen_9_frame_0999
H           0.790059       -1.753845       -1.330241
C           1.002087       -1.103504       -0.474958
H           1.371967       -1.616202        0.418112
C           1.339292        0.243718       -0.696745
H           2.003666        0.719602        0.027376
H           1.511836        0.566785       -1.725407
H          -1.195520       -2.222231        0.572071
C          -1.057922       -1.185136        0.258184
H           0.156861        2.431454       -0.609626
C          -0.705668        1.140816        0.880475
H          -1.194573       -0.426392        2.261315
C          -1.081211       -0.159966        1.211433
H          -0.557948        1.871927        1.685049
C          -0.236144        1.433643       -0.431497
H          -0.782399        1.028332       -1.278319
H          -1.364381       -0.969002       -0.767222
16
reaction_000_gen_9_frame_1000
H           0.786725       -1.753006       -1.328378
C           1.008033       -1.104237       -0.475618
H           1.374882       -1.608869        0.421381
C           1.339019        0.241450       -0.696965
H           2.001422        0.723904        0.032581
H           1.511080        0.557981       -1.726767
H          -1.196185       -2.221630        0.572936
C          -1.061323       -1.189095        0.258232
H           0.155151        2.437581       -0.612144
C          -0.702299        1.136711        0.876060
H          -1.195890       -0.419055        2.266175
C          -1.082264       -0.160041        1.210682
H          -0.560181        1.870487        1.680182
C          -0.231635        1.428256       -0.429537
H          -0.780261        1.028452       -1.280852
H          -1.366272       -0.968888       -0.767967