25
title
 B                  2.54820000   -1.74270000   -0.27690000
 H                  3.49430000   -2.16000000   -0.91850000
 H                  1.50290000   -2.34160000   -0.42850000
 C                 -3.99560000   -0.28490000   -0.67200000
 H                 -4.44320000    0.70440000   -0.77690000
 F                  7.43340000    1.19930000    4.17210000
 C                  2.43760000   -0.19670000   -0.17300000
 N                  1.30310000    0.53480000    0.11680000
 N                  3.49190000    0.69500000   -0.24740000
 C                 -0.03590000    0.05560000   -0.11000000
 C                  4.86250000    0.28340000   -0.07200000
 H                 -0.10350000   -1.00200000    0.17250000
 H                 -0.74300000    0.63360000    0.50600000
 H                 -0.34400000    0.14920000   -1.17180000
 H                  5.05190000   -0.62590000   -0.65500000
 H                  5.53470000    1.07960000   -0.42710000
 H                  5.09790000    0.06350000    0.98970000
 H                 -2.90940000   -0.32930000   -0.76940000
 H                 -4.41900000   -0.91780000    0.10980000
 C                  3.08330000    1.99800000    0.25510000
 H                  3.59050000    2.81880000   -0.27560000
 H                  3.31160000    2.09450000    1.33850000
 C                  1.57550000    1.95930000    0.01600000
 H                  1.00040000    2.53840000    0.75590000
 H                  1.31950000    2.34410000   -0.99450000