19

C          -1.314156       -1.607807        2.985024
N          -1.127300       -1.184075        1.615136
C           0.065845       -1.314789        0.965969
O           1.047850       -1.832682        1.448784
C           0.067243       -0.846456       -0.413781
C           0.304970       -0.576195       -1.598431
F           0.153789       -0.907039       -2.862881
H          -1.856389       -0.648598        1.166674
H          -1.541218       -0.752108        3.645407
H          -0.361183       -2.072614        3.315053
H          -2.111152       -2.362712        3.079602
C           1.350177        1.210535       -1.631681
C           0.387377        2.141716       -2.277172
H           0.140410        1.793220       -3.298280
H          -0.524534        2.227897       -1.675991
H           0.844387        3.145713       -2.369750
O           1.660625        1.301780       -0.352320
O           0.540794        1.300924        0.442998
H           2.272465        0.983287       -2.184360
