16

H           0.786725       -1.753006       -1.328378
C           1.008033       -1.104237       -0.475617
H           1.374882       -1.608869        0.421381
C           1.339019        0.241451       -0.696964
H           2.001421        0.723904        0.032582
H           1.511080        0.557981       -1.726766
H          -1.196185       -2.221631        0.572936
C          -1.061323       -1.189095        0.258232
H           0.155151        2.437581       -0.612144
C          -0.702299        1.136711        0.876059
H          -1.195891       -0.419055        2.266174
C          -1.082264       -0.160041        1.210681
H          -0.560182        1.870487        1.680181
C          -0.231635        1.428256       -0.429537
H          -0.780260        1.028452       -1.280853
H          -1.366272       -0.968888       -0.767967
