 Entering Gaussian System, Link 0=g09
 Input=gen_9.gjf
 Output=gen_9.log
 Initial command:
 /root/g09/l1.exe "/tmp/Gau-3243548.inp" -scrdir="/tmp/"
 Entering Link 1 = /root/g09/l1.exe PID=   3243550.
  
 Copyright (c) 1988,1990,1992,1993,1995,1998,2003,2009,2013,
            Gaussian, Inc.  All Rights Reserved.
  
 This is part of the Gaussian(R) 09 program.  It is based on
 the Gaussian(R) 03 system (copyright 2003, Gaussian, Inc.),
 the Gaussian(R) 98 system (copyright 1998, Gaussian, Inc.),
 the Gaussian(R) 94 system (copyright 1995, Gaussian, Inc.),
 the Gaussian 92(TM) system (copyright 1992, Gaussian, Inc.),
 the Gaussian 90(TM) system (copyright 1990, Gaussian, Inc.),
 the Gaussian 88(TM) system (copyright 1988, Gaussian, Inc.),
 the Gaussian 86(TM) system (copyright 1986, Carnegie Mellon
 University), and the Gaussian 82(TM) system (copyright 1983,
 Carnegie Mellon University). Gaussian is a federally registered
 trademark of Gaussian, Inc.
  
 This software contains proprietary and confidential information,
 including trade secrets, belonging to Gaussian, Inc.
  
 This software is provided under written license and may be
 used, copied, transmitted, or stored only in accord with that
 written license.
  
 The following legend is applicable only to US Government
 contracts under FAR:
  
                    RESTRICTED RIGHTS LEGEND
  
 Use, reproduction and disclosure by the US Government is
 subject to restrictions as set forth in subparagraphs (a)
 and (c) of the Commercial Computer Software - Restricted
 Rights clause in FAR 52.227-19.
  
 Gaussian, Inc.
 340 Quinnipiac St., Bldg. 40, Wallingford CT 06492
  
  
 ---------------------------------------------------------------
 Warning -- This program may not be used in any manner that
 competes with the business of Gaussian, Inc. or will provide
 assistance to any competitor of Gaussian, Inc.  The licensee
 of this program is prohibited from giving any competitor of
 Gaussian, Inc. access to this program.  By using this program,
 the user acknowledges that Gaussian, Inc. is engaged in the
 business of creating and licensing software in the field of
 computational chemistry and represents and warrants to the
 licensee that it is not a competitor of Gaussian, Inc. and that
 it will not use this program in any manner prohibited above.
 ---------------------------------------------------------------
  

 Cite this work as:
 Gaussian 09, Revision D.01,
 M. J. Frisch, G. W. Trucks, H. B. Schlegel, G. E. Scuseria, 
 M. A. Robb, J. R. Cheeseman, G. Scalmani, V. Barone, B. Mennucci, 
 G. A. Petersson, H. Nakatsuji, M. Caricato, X. Li, H. P. Hratchian, 
 A. F. Izmaylov, J. Bloino, G. Zheng, J. L. Sonnenberg, M. Hada, 
 M. Ehara, K. Toyota, R. Fukuda, J. Hasegawa, M. Ishida, T. Nakajima, 
 Y. Honda, O. Kitao, H. Nakai, T. Vreven, J. A. Montgomery, Jr., 
 J. E. Peralta, F. Ogliaro, M. Bearpark, J. J. Heyd, E. Brothers, 
 K. N. Kudin, V. N. Staroverov, T. Keith, R. Kobayashi, J. Normand, 
 K. Raghavachari, A. Rendell, J. C. Burant, S. S. Iyengar, J. Tomasi, 
 M. Cossi, N. Rega, J. M. Millam, M. Klene, J. E. Knox, J. B. Cross, 
 V. Bakken, C. Adamo, J. Jaramillo, R. Gomperts, R. E. Stratmann, 
 O. Yazyev, A. J. Austin, R. Cammi, C. Pomelli, J. W. Ochterski, 
 R. L. Martin, K. Morokuma, V. G. Zakrzewski, G. A. Voth, 
 P. Salvador, J. J. Dannenberg, S. Dapprich, A. D. Daniels, 
 O. Farkas, J. B. Foresman, J. V. Ortiz, J. Cioslowski, 
 and D. J. Fox, Gaussian, Inc., Wallingford CT, 2013.
 
 ******************************************
 Gaussian 09:  ES64L-G09RevD.01 24-Apr-2013
                16-Jun-2026 
 ******************************************
 %nproc=16
 Will use up to   16 processors via shared memory.
 %mem=32GB
 ----------------------------------------------------------------------
 # p opt(TS,calcfc,noeigen) freq b3lyp/def2svp EmpiricalDispersion=gd3b
 j geom=PrintInputOrient
 ----------------------------------------------------------------------
 1/5=1,10=4,11=1,14=-1,18=20,26=3,38=1/1,3;
 2/9=2110,12=2,17=6,18=5,40=1/2;
 3/5=43,7=101,11=2,16=1,25=1,30=1,71=2,74=-5,124=41,140=1/1,2,3;
 4//1;
 5/5=2,38=5/2;
 8/6=4,10=90,11=11/1;
 11/6=1,8=1,9=11,15=111,16=1/1,2,10;
 10/6=1,13=1/2;
 6/7=2,8=2,9=2,10=2,28=1/1;
 7/10=1,18=20,25=1/1,2,3,16;
 1/5=1,10=4,11=1,14=-1,18=20,26=3/3(2);
 2/9=2110/2;
 99//99;
 2/9=2110/2;
 3/5=43,7=101,11=2,16=1,25=1,30=1,71=1,74=-5,124=41/1,2,3;
 4/5=5,16=3,69=1/1;
 5/5=2,38=5/2;
 7//1,2,3,16;
 1/5=1,11=1,14=-1,18=20,26=3/3(-5);
 2/9=2110/2;
 6/7=2,8=2,9=2,10=2,19=2,28=1/1;
 99/9=1/99;
 ------------------
 Generated by UniTS
 ------------------
 Symbolic Z-matrix:
 Charge =  0 Multiplicity = 1
 H                     0.78673  -1.75301  -1.32838 
 C                     1.00803  -1.10424  -0.47562 
 H                     1.37488  -1.60887   0.42138 
 C                     1.33902   0.24145  -0.69697 
 H                     2.00142   0.7239    0.03258 
 H                     1.51108   0.55798  -1.72677 
 H                    -1.19619  -2.22163   0.57294 
 C                    -1.06132  -1.1891    0.25823 
 H                     0.15515   2.43758  -0.61214 
 C                    -0.7023    1.13671   0.87606 
 H                    -1.19589  -0.41906   2.26618 
 C                    -1.08226  -0.16004   1.21068 
 H                    -0.56018   1.87049   1.68018 
 C                    -0.23164   1.42826  -0.42954 
 H                    -0.78026   1.02845  -1.28085 
 H                    -1.36627  -0.96889  -0.76797 
 
 Add virtual bond connecting atoms C14        and C4         Dist= 3.75D+00.

 GradGradGradGradGradGradGradGradGradGradGradGradGradGradGradGradGradGrad
 Berny optimization.
 Initialization pass.
                           ----------------------------
                           !    Initial Parameters    !
                           ! (Angstroms and Degrees)  !
 --------------------------                            --------------------------
 ! Name  Definition              Value          Derivative Info.                !
 --------------------------------------------------------------------------------
 ! R1    R(1,2)                  1.0941         calculate D2E/DX2 analytically  !
 ! R2    R(2,3)                  1.0926         calculate D2E/DX2 analytically  !
 ! R3    R(2,4)                  1.4034         calculate D2E/DX2 analytically  !
 ! R4    R(4,5)                  1.0972         calculate D2E/DX2 analytically  !
 ! R5    R(4,6)                  1.091          calculate D2E/DX2 analytically  !
 ! R6    R(4,14)                 1.9867         calculate D2E/DX2 analytically  !
 ! R7    R(7,8)                  1.0878         calculate D2E/DX2 analytically  !
 ! R8    R(8,12)                 1.4023         calculate D2E/DX2 analytically  !
 ! R9    R(8,16)                 1.093          calculate D2E/DX2 analytically  !
 ! R10   R(9,14)                 1.0962         calculate D2E/DX2 analytically  !
 ! R11   R(10,12)                1.3921         calculate D2E/DX2 analytically  !
 ! R12   R(10,13)                1.0978         calculate D2E/DX2 analytically  !
 ! R13   R(10,14)                1.4181         calculate D2E/DX2 analytically  !
 ! R14   R(11,12)                1.0927         calculate D2E/DX2 analytically  !
 ! R15   R(14,15)                1.0888         calculate D2E/DX2 analytically  !
 ! A1    A(1,2,3)              115.716          calculate D2E/DX2 analytically  !
 ! A2    A(1,2,4)              119.5622         calculate D2E/DX2 analytically  !
 ! A3    A(3,2,4)              119.5491         calculate D2E/DX2 analytically  !
 ! A4    A(2,4,5)              117.3336         calculate D2E/DX2 analytically  !
 ! A5    A(2,4,6)              117.6636         calculate D2E/DX2 analytically  !
 ! A6    A(2,4,14)             111.4157         calculate D2E/DX2 analytically  !
 ! A7    A(5,4,6)              113.8813         calculate D2E/DX2 analytically  !
 ! A8    A(5,4,14)              97.1876         calculate D2E/DX2 analytically  !
 ! A9    A(6,4,14)              94.498          calculate D2E/DX2 analytically  !
 ! A10   A(7,8,12)             119.8797         calculate D2E/DX2 analytically  !
 ! A11   A(7,8,16)             115.358          calculate D2E/DX2 analytically  !
 ! A12   A(12,8,16)            119.0574         calculate D2E/DX2 analytically  !
 ! A13   A(12,10,13)           118.8083         calculate D2E/DX2 analytically  !
 ! A14   A(12,10,14)           120.2246         calculate D2E/DX2 analytically  !
 ! A15   A(13,10,14)           119.6015         calculate D2E/DX2 analytically  !
 ! A16   A(8,12,10)            121.0793         calculate D2E/DX2 analytically  !
 ! A17   A(8,12,11)            118.9244         calculate D2E/DX2 analytically  !
 ! A18   A(10,12,11)           118.7745         calculate D2E/DX2 analytically  !
 ! A19   A(4,14,9)             104.3979         calculate D2E/DX2 analytically  !
 ! A20   A(4,14,10)            105.278          calculate D2E/DX2 analytically  !
 ! A21   A(4,14,15)             94.2297         calculate D2E/DX2 analytically  !
 ! A22   A(9,14,10)            117.3711         calculate D2E/DX2 analytically  !
 ! A23   A(9,14,15)            112.6823         calculate D2E/DX2 analytically  !
 ! A24   A(10,14,15)           118.496          calculate D2E/DX2 analytically  !
 ! D1    D(1,2,4,5)           -150.8105         calculate D2E/DX2 analytically  !
 ! D2    D(1,2,4,6)             -9.0441         calculate D2E/DX2 analytically  !
 ! D3    D(1,2,4,14)            98.4563         calculate D2E/DX2 analytically  !
 ! D4    D(3,2,4,5)              2.6966         calculate D2E/DX2 analytically  !
 ! D5    D(3,2,4,6)            144.463          calculate D2E/DX2 analytically  !
 ! D6    D(3,2,4,14)          -108.0366         calculate D2E/DX2 analytically  !
 ! D7    D(2,4,14,9)           179.0712         calculate D2E/DX2 analytically  !
 ! D8    D(2,4,14,10)           54.865          calculate D2E/DX2 analytically  !
 ! D9    D(2,4,14,15)          -66.2079         calculate D2E/DX2 analytically  !
 ! D10   D(5,4,14,9)            55.9376         calculate D2E/DX2 analytically  !
 ! D11   D(5,4,14,10)          -68.2687         calculate D2E/DX2 analytically  !
 ! D12   D(5,4,14,15)          170.6584         calculate D2E/DX2 analytically  !
 ! D13   D(6,4,14,9)           -58.8484         calculate D2E/DX2 analytically  !
 ! D14   D(6,4,14,10)          176.9453         calculate D2E/DX2 analytically  !
 ! D15   D(6,4,14,15)           55.8724         calculate D2E/DX2 analytically  !
 ! D16   D(7,8,12,10)          169.5872         calculate D2E/DX2 analytically  !
 ! D17   D(7,8,12,11)            2.3705         calculate D2E/DX2 analytically  !
 ! D18   D(16,8,12,10)         -38.2494         calculate D2E/DX2 analytically  !
 ! D19   D(16,8,12,11)         154.5339         calculate D2E/DX2 analytically  !
 ! D20   D(13,10,12,8)        -169.2387         calculate D2E/DX2 analytically  !
 ! D21   D(13,10,12,11)         -2.0033         calculate D2E/DX2 analytically  !
 ! D22   D(14,10,12,8)          -2.6289         calculate D2E/DX2 analytically  !
 ! D23   D(14,10,12,11)        164.6066         calculate D2E/DX2 analytically  !
 ! D24   D(12,10,14,4)         -58.0594         calculate D2E/DX2 analytically  !
 ! D25   D(12,10,14,9)        -173.6334         calculate D2E/DX2 analytically  !
 ! D26   D(12,10,14,15)         45.5489         calculate D2E/DX2 analytically  !
 ! D27   D(13,10,14,4)         108.4444         calculate D2E/DX2 analytically  !
 ! D28   D(13,10,14,9)          -7.1295         calculate D2E/DX2 analytically  !
 ! D29   D(13,10,14,15)       -147.9472         calculate D2E/DX2 analytically  !
 --------------------------------------------------------------------------------
 Trust Radius=3.00D-01 FncErr=1.00D-07 GrdErr=1.00D-06
 Number of steps in this run=     78 maximum allowed number of steps=    100.
 Search for a saddle point of order  1.
 GradGradGradGradGradGradGradGradGradGradGradGradGradGradGradGradGradGrad

                          Input orientation:                          
 ---------------------------------------------------------------------
 Center     Atomic      Atomic             Coordinates (Angstroms)
 Number     Number       Type             X           Y           Z
 ---------------------------------------------------------------------
      1          1           0        0.786725   -1.753006   -1.328378
      2          6           0        1.008033   -1.104237   -0.475618
      3          1           0        1.374882   -1.608869    0.421381
      4          6           0        1.339019    0.241450   -0.696965
      5          1           0        2.001422    0.723904    0.032581
      6          1           0        1.511080    0.557981   -1.726767
      7          1           0       -1.196185   -2.221630    0.572936
      8          6           0       -1.061323   -1.189095    0.258232
      9          1           0        0.155151    2.437581   -0.612144
     10          6           0       -0.702299    1.136711    0.876060
     11          1           0       -1.195890   -0.419055    2.266175
     12          6           0       -1.082264   -0.160041    1.210682
     13          1           0       -0.560181    1.870487    1.680182
     14          6           0       -0.231635    1.428256   -0.429537
     15          1           0       -0.780261    1.028452   -1.280852
     16          1           0       -1.366272   -0.968888   -0.767967
 ---------------------------------------------------------------------
                    Distance matrix (angstroms):
                    1          2          3          4          5
     1  H    0.000000
     2  C    1.094111   0.000000
     3  H    1.851583   1.092629   0.000000
     4  C    2.163693   1.403360   2.162328   0.000000
     5  H    3.076163   2.141772   2.446538   1.097168   0.000000
     6  H    2.454397   2.140420   3.054231   1.091004   1.833922
     7  H    2.786850   2.684513   2.647420   3.755885   4.380964
     8  C    2.500122   2.197264   2.477483   2.953050   3.618134
     9  H    4.298011   3.645617   4.350825   2.496343   2.600207
    10  C    3.927748   3.126358   3.472697   2.728164   2.862162
    11  H    4.316364   3.583878   3.380502   3.955026   4.064247
    12  C    3.532348   2.846833   2.959673   3.108524   3.417367
    13  H    4.898499   3.994465   4.175520   3.451311   3.254390
    14  C    3.459104   2.820004   3.539645   1.986701   2.386673
    15  H    3.192838   2.897371   3.807585   2.334876   3.091216
    16  H    2.358876   2.396062   3.055822   2.964550   3.853282
                    6          7          8          9         10
     6  H    0.000000
     7  H    4.510450   0.000000
     8  C    3.689140   1.087821   0.000000
     9  H    2.571736   4.993873   3.923027   0.000000
    10  C    3.465355   3.407970   2.433102   2.154585   0.000000
    11  H    4.921978   2.473123   2.154740   4.274389   2.143936
    12  C    3.983666   2.160983   1.402338   3.406102   1.392089
    13  H    4.197630   4.286714   3.410884   2.467398   1.097833
    14  C    2.340350   3.906018   2.830536   1.096214   1.418135
    15  H    2.381266   3.764645   2.713907   1.818739   2.161034
    16  H    3.395553   1.842909   1.092964   3.734038   2.752677
                   11         12         13         14         15
    11  H    0.000000
    12  C    1.092733   0.000000
    13  H    2.447349   2.148498   0.000000
    14  C    3.407229   2.436509   2.180464   0.000000
    15  H    3.853495   2.776952   3.086289   1.088839   0.000000
    16  H    3.088262   2.156373   3.834745   2.673618   2.143788
                   16
    16  H    0.000000
 Stoichiometry    C6H10
 Framework group  C1[X(C6H10)]
 Deg. of freedom    42
 Full point group                 C1      NOp   1
 Largest Abelian subgroup         C1      NOp   1
 Largest concise Abelian subgroup C1      NOp   1
                         Standard orientation:                         
 ---------------------------------------------------------------------
 Center     Atomic      Atomic             Coordinates (Angstroms)
 Number     Number       Type             X           Y           Z
 ---------------------------------------------------------------------
      1          1           0       -1.789118   -1.551252    0.580963
      2          6           0       -1.351597   -0.958554   -0.227964
      3          1           0       -1.166400   -1.494658   -1.161845
      4          6           0       -1.551714    0.430199   -0.255135
      5          1           0       -1.557650    0.919214   -1.237278
      6          1           0       -2.265779    0.853018    0.453119
      7          1           0        0.847688   -2.406626    0.294381
      8          6           0        0.699336   -1.341926    0.461000
      9          1           0       -0.259816    2.461632    0.405175
     10          6           0        1.127101    0.946665   -0.245648
     11          1           0        2.133488   -0.770626   -1.042239
     12          6           0        1.441267   -0.409127   -0.277901
     13          1           0        1.609203    1.618739   -0.967542
     14          6           0        0.008647    1.402806    0.497387
     15          1           0       -0.136410    1.019163    1.506023
     16          1           0        0.346557   -1.068980    1.458805
 ---------------------------------------------------------------------
 Rotational constants (GHZ):      4.4517245      3.7177668      2.3831450
 Standard basis: def2SVP (5D, 7F)
 There are   140 symmetry adapted cartesian basis functions of A   symmetry.
 There are   134 symmetry adapted basis functions of A   symmetry.
   134 basis functions,   220 primitive gaussians,   140 cartesian basis functions
    23 alpha electrons       23 beta electrons
       nuclear repulsion energy       227.1915036430 Hartrees.
 NAtoms=   16 NActive=   16 NUniq=   16 SFac= 1.00D+00 NAtFMM=   60 NAOKFM=F Big=F
 Integral buffers will be    131072 words long.
 Raffenetti 2 integral format.
 Two-electron integral symmetry is turned on.
 Nuclear repulsion after empirical dispersion term =      227.1666343659 Hartrees.
 One-electron integrals computed using PRISM.
   1 Symmetry operations used in ECPInt.
 ECPInt:  NShTT=    2211 NPrTT=    7611 LenC2=    2209 LenP2D=    6510.
 LDataN:  DoStor=T MaxTD1= 4 Len=   56
 NBasis=   134 RedAO= T EigKep=  9.46D-04  NBF=   134
 NBsUse=   134 1.00D-06 EigRej= -1.00D+00 NBFU=   134
 ExpMin= 1.22D-01 ExpMax= 1.24D+03 ExpMxC= 1.86D+02 IAcc=1 IRadAn=         1 AccDes= 0.00D+00
 Harris functional with IExCor=  402 and IRadAn=       1 diagonalized for initial guess.
 HarFok:  IExCor=  402 AccDes= 0.00D+00 IRadAn=         1 IDoV= 1 UseB2=F ITyADJ=14
 ICtDFT=  3500011 ScaDFX=  1.000000  1.000000  1.000000  1.000000
 FoFCou: FMM=F IPFlag=           0 FMFlag=      100000 FMFlg1=           0
         NFxFlg=           0 DoJE=T BraDBF=F KetDBF=T FulRan=T
         wScrn=  0.000000 ICntrl=     500 IOpCl=  0 I1Cent=   200000004 NGrid=           0
         NMat0=    1 NMatS0=      1 NMatT0=    0 NMatD0=    1 NMtDS0=    0 NMtDT0=    0
 Petite list used in FoFCou.
 Keep R1 ints in memory in canonical form, NReq=42392737.
 Requested convergence on RMS density matrix=1.00D-08 within 128 cycles.
 Requested convergence on MAX density matrix=1.00D-06.
 Requested convergence on             energy=1.00D-06.
 No special actions if energy rises.
 Integral accuracy reduced to 1.0D-05 until final iterations.
 Initial convergence to 1.0D-05 achieved.  Increase integral accuracy.
 SCF Done:  E(RB3LYP) =  -234.407825766     A.U. after   14 cycles
            NFock= 14  Conv=0.35D-08     -V/T= 2.0133
 DoSCS=F DFT=T ScalE2(SS,OS)=  1.000000  1.000000
 Range of M.O.s used for correlation:     1   134
 NBasis=   134 NAE=    23 NBE=    23 NFC=     0 NFV=     0
 NROrb=    134 NOA=    23 NOB=    23 NVA=   111 NVB=   111
   1 Symmetry operations used in ECPInt.
 ECPInt:  NShTT=    2211 NPrTT=    7611 LenC2=    2209 LenP2D=    6510.
 LDataN:  DoStor=T MaxTD1= 5 Len=  102
 Symmetrizing basis deriv contribution to polar:
 IMax=3 JMax=2 DiffMx= 0.00D+00
 G2DrvN: will do    17 centers at a time, making    1 passes.
 Calling FoFCou, ICntrl=  3107 FMM=F I1Cent=   0 AccDes= 0.00D+00.
 End of G2Drv F.D. properties file   721 does not exist.
 End of G2Drv F.D. properties file   722 does not exist.
 End of G2Drv F.D. properties file   788 does not exist.
          IDoAtm=1111111111111111
          Differentiating once with respect to nuclear coordinates.
 Keep R1 ints in memory in canonical form, NReq=42317047.
          There are    51 degrees of freedom in the 1st order CPHF.  IDoFFX=6 NUNeed=     0.
     45 vectors produced by pass  0 Test12= 5.01D-15 1.96D-09 XBig12= 9.51D-02 1.10D-01.
 AX will form    45 AO Fock derivatives at one time.
     45 vectors produced by pass  1 Test12= 5.01D-15 1.96D-09 XBig12= 3.78D-03 2.12D-02.
     45 vectors produced by pass  2 Test12= 5.01D-15 1.96D-09 XBig12= 3.61D-05 9.10D-04.
     45 vectors produced by pass  3 Test12= 5.01D-15 1.96D-09 XBig12= 1.63D-07 5.90D-05.
     45 vectors produced by pass  4 Test12= 5.01D-15 1.96D-09 XBig12= 2.15D-10 1.62D-06.
     27 vectors produced by pass  5 Test12= 5.01D-15 1.96D-09 XBig12= 1.33D-13 3.93D-08.
 InvSVY:  IOpt=1 It=  1 EMax= 5.00D-16
 Solved reduced A of dimension   252 with    51 vectors.
 End of Minotr F.D. properties file   721 does not exist.
 End of Minotr F.D. properties file   722 does not exist.
 End of Minotr F.D. properties file   788 does not exist.

 **********************************************************************

            Population analysis using the SCF density.

 **********************************************************************

 Orbital symmetries:
       Occupied  (A) (A) (A) (A) (A) (A) (A) (A) (A) (A) (A) (A)
                 (A) (A) (A) (A) (A) (A) (A) (A) (A) (A) (A)
       Virtual   (A) (A) (A) (A) (A) (A) (A) (A) (A) (A) (A) (A)
                 (A) (A) (A) (A) (A) (A) (A) (A) (A) (A) (A) (A)
                 (A) (A) (A) (A) (A) (A) (A) (A) (A) (A) (A) (A)
                 (A) (A) (A) (A) (A) (A) (A) (A) (A) (A) (A) (A)
                 (A) (A) (A) (A) (A) (A) (A) (A) (A) (A) (A) (A)
                 (A) (A) (A) (A) (A) (A) (A) (A) (A) (A) (A) (A)
                 (A) (A) (A) (A) (A) (A) (A) (A) (A) (A) (A) (A)
                 (A) (A) (A) (A) (A) (A) (A) (A) (A) (A) (A) (A)
                 (A) (A) (A) (A) (A) (A) (A) (A) (A) (A) (A) (A)
                 (A) (A) (A)
 The electronic state is 1-A.
 Alpha  occ. eigenvalues --  -10.19485 -10.19274 -10.19222 -10.19099 -10.17710
 Alpha  occ. eigenvalues --  -10.17624  -0.80211  -0.73925  -0.70610  -0.61512
 Alpha  occ. eigenvalues --   -0.57524  -0.50849  -0.48810  -0.46613  -0.42065
 Alpha  occ. eigenvalues --   -0.40896  -0.39843  -0.36943  -0.36075  -0.34686
 Alpha  occ. eigenvalues --   -0.33717  -0.24591  -0.21856
 Alpha virt. eigenvalues --   -0.01278   0.01567   0.05889   0.07664   0.09728
 Alpha virt. eigenvalues --    0.10506   0.11211   0.12434   0.13717   0.14987
 Alpha virt. eigenvalues --    0.16485   0.18598   0.21634   0.26498   0.29940
 Alpha virt. eigenvalues --    0.33206   0.37251   0.37972   0.39635   0.43032
 Alpha virt. eigenvalues --    0.46300   0.47204   0.47902   0.48768   0.52443
 Alpha virt. eigenvalues --    0.53660   0.54470   0.57429   0.60376   0.63773
 Alpha virt. eigenvalues --    0.65024   0.65589   0.66178   0.66527   0.67055
 Alpha virt. eigenvalues --    0.68899   0.69725   0.70087   0.71896   0.72580
 Alpha virt. eigenvalues --    0.72889   0.76471   0.77816   0.81160   0.86252
 Alpha virt. eigenvalues --    0.89182   0.94434   0.95167   1.04387   1.09533
 Alpha virt. eigenvalues --    1.19300   1.24397   1.28189   1.30844   1.32585
 Alpha virt. eigenvalues --    1.36487   1.38659   1.43371   1.48828   1.56557
 Alpha virt. eigenvalues --    1.61317   1.64454   1.66262   1.68831   1.71133
 Alpha virt. eigenvalues --    1.72956   1.74461   1.76163   1.78057   1.79119
 Alpha virt. eigenvalues --    1.80792   1.82418   1.83853   1.86680   1.89453
 Alpha virt. eigenvalues --    1.90073   1.91540   1.97260   1.98433   1.99488
 Alpha virt. eigenvalues --    2.05785   2.06847   2.08998   2.11575   2.13989
 Alpha virt. eigenvalues --    2.17055   2.19443   2.20929   2.25695   2.30586
 Alpha virt. eigenvalues --    2.32250   2.40866   2.42629   2.44838   2.47606
 Alpha virt. eigenvalues --    2.53440   2.61117   2.63017   2.71884   2.73177
 Alpha virt. eigenvalues --    2.73651   2.75798   2.82269   2.82617   2.87770
 Alpha virt. eigenvalues --    2.88869   3.00347   3.05330   3.10966   3.20537
 Alpha virt. eigenvalues --    3.39714
          Condensed to atoms (all electrons):
               1          2          3          4          5          6
     1  H    0.690079   0.366020  -0.041290  -0.014987   0.008475  -0.019046
     2  C    0.366020   4.709848   0.371657   0.533857  -0.009958  -0.012072
     3  H   -0.041290   0.371657   0.668378  -0.010096  -0.018463   0.007976
     4  C   -0.014987   0.533857  -0.010096   4.676358   0.366593   0.358430
     5  H    0.008475  -0.009958  -0.018463   0.366593   0.683705  -0.039289
     6  H   -0.019046  -0.012072   0.007976   0.358430  -0.039289   0.696722
     7  H    0.001843  -0.011580  -0.003292   0.003869  -0.000070  -0.000175
     8  C   -0.005244   0.209212  -0.006977  -0.023450   0.001750   0.001262
     9  H   -0.000225   0.005604  -0.000168  -0.013804  -0.004333   0.000612
    10  C    0.003774  -0.060062  -0.000948  -0.016968   0.000279  -0.001480
    11  H   -0.000249   0.002224   0.000911  -0.000608  -0.000080   0.000054
    12  C   -0.003051   0.000800  -0.001364  -0.053910  -0.002746   0.003599
    13  H    0.000045  -0.000570  -0.000032   0.001802   0.001663  -0.000301
    14  C   -0.000176  -0.035299   0.002173   0.247741  -0.015988  -0.007992
    15  H    0.002950  -0.021311  -0.000123  -0.009474   0.004610  -0.010233
    16  H   -0.009075  -0.001761   0.002138  -0.019916   0.000005   0.001503
               7          8          9         10         11         12
     1  H    0.001843  -0.005244  -0.000225   0.003774  -0.000249  -0.003051
     2  C   -0.011580   0.209212   0.005604  -0.060062   0.002224   0.000800
     3  H   -0.003292  -0.006977  -0.000168  -0.000948   0.000911  -0.001364
     4  C    0.003869  -0.023450  -0.013804  -0.016968  -0.000608  -0.053910
     5  H   -0.000070   0.001750  -0.004333   0.000279  -0.000080  -0.002746
     6  H   -0.000175   0.001262   0.000612  -0.001480   0.000054   0.003599
     7  H    0.683238   0.376774  -0.000048   0.014502  -0.014360  -0.023948
     8  C    0.376774   4.725366   0.000423  -0.024754  -0.072502   0.473730
     9  H   -0.000048   0.000423   0.694101  -0.018651  -0.000301   0.014043
    10  C    0.014502  -0.024754  -0.018651   4.909267  -0.057313   0.449178
    11  H   -0.014360  -0.072502  -0.000301  -0.057313   0.725438   0.424140
    12  C   -0.023948   0.473730   0.014043   0.449178   0.424140   4.867337
    13  H   -0.000304   0.013627  -0.014019   0.420516  -0.015967  -0.053842
    14  C   -0.000205  -0.044637   0.363056   0.456990   0.013710  -0.024831
    15  H    0.000045   0.019170  -0.038579   0.021840  -0.000320  -0.038897
    16  H   -0.042454   0.340824  -0.000213  -0.040046   0.009047   0.022452
              13         14         15         16
     1  H    0.000045  -0.000176   0.002950  -0.009075
     2  C   -0.000570  -0.035299  -0.021311  -0.001761
     3  H   -0.000032   0.002173  -0.000123   0.002138
     4  C    0.001802   0.247741  -0.009474  -0.019916
     5  H    0.001663  -0.015988   0.004610   0.000005
     6  H   -0.000301  -0.007992  -0.010233   0.001503
     7  H   -0.000304  -0.000205   0.000045  -0.042454
     8  C    0.013627  -0.044637   0.019170   0.340824
     9  H   -0.014019   0.363056  -0.038579  -0.000213
    10  C    0.420516   0.456990   0.021840  -0.040046
    11  H   -0.015967   0.013710  -0.000320   0.009047
    12  C   -0.053842  -0.024831  -0.038897   0.022452
    13  H    0.719679  -0.069283   0.008526  -0.000190
    14  C   -0.069283   4.722025   0.343740   0.023884
    15  H    0.008526   0.343740   0.697326  -0.000351
    16  H   -0.000190   0.023884  -0.000351   0.692341
 Mulliken charges:
               1
     1  H    0.020156
     2  C   -0.046609
     3  H    0.029519
     4  C   -0.025436
     5  H    0.023846
     6  H    0.020429
     7  H    0.016163
     8  C    0.015428
     9  H    0.012503
    10  C   -0.056125
    11  H   -0.013821
    12  C   -0.052691
    13  H   -0.011348
    14  C    0.025093
    15  H    0.021082
    16  H    0.021812
 Sum of Mulliken charges =   0.00000
 Mulliken charges with hydrogens summed into heavy atoms:
               1
     2  C    0.003066
     4  C    0.018839
     8  C    0.053403
    10  C   -0.067473
    12  C   -0.066513
    14  C    0.058678
 APT charges:
               1
     1  H    0.349315
     2  C   -0.625234
     3  H    0.281006
     4  C   -0.640092
     5  H    0.274708
     6  H    0.369682
     7  H    0.439088
     8  C   -0.484783
     9  H    0.427796
    10  C   -0.554707
    11  H    0.410356
    12  C   -0.546669
    13  H    0.416676
    14  C   -0.505597
    15  H    0.205609
    16  H    0.182846
 Sum of APT charges =   0.00000
 APT charges with hydrogens summed into heavy atoms:
               1
     2  C    0.005087
     4  C    0.004299
     8  C    0.137151
    10  C   -0.138032
    12  C   -0.136313
    14  C    0.127808
 Electronic spatial extent (au):  <R**2>=            593.2446
 Charge=              0.0000 electrons
 Dipole moment (field-independent basis, Debye):
    X=             -0.6015    Y=             -0.0433    Z=              0.0055  Tot=              0.6031
 Quadrupole moment (field-independent basis, Debye-Ang):
   XX=            -40.8486   YY=            -36.9728   ZZ=            -37.7083
   XY=             -0.9593   XZ=             -2.2986   YZ=             -0.3785
 Traceless Quadrupole moment (field-independent basis, Debye-Ang):
   XX=             -2.3387   YY=              1.5371   ZZ=              0.8016
   XY=             -0.9593   XZ=             -2.2986   YZ=             -0.3785
 Octapole moment (field-independent basis, Debye-Ang**2):
  XXX=             -0.9880  YYY=             -0.4824  ZZZ=              0.4194  XYY=             -0.4259
  XXY=              0.4004  XXZ=             -1.6650  XZZ=             -1.3004  YZZ=             -0.3059
  YYZ=             -1.4324  XYZ=             -0.0159
 Hexadecapole moment (field-independent basis, Debye-Ang**3):
 XXXX=           -405.2316 YYYY=           -318.9454 ZZZZ=           -105.3338 XXXY=             -4.9877
 XXXZ=            -15.4332 YYYX=             -4.1186 YYYZ=             -1.6882 ZZZX=             -2.2518
 ZZZY=             -0.3360 XXYY=           -120.1305 XXZZ=            -81.1845 YYZZ=            -72.9234
 XXYZ=             -1.1468 YYXZ=             -4.3131 ZZXY=              0.1872
 N-N= 2.271666343659D+02 E-N=-9.951807624235D+02  KE= 2.313201772379D+02
  Exact polarizability:   0.000   0.000   0.000   0.000   0.000   0.000
 Approx polarizability: 141.931   1.655 133.274  -2.441  -1.786  78.801
   1 Symmetry operations used in ECPInt.
 ECPInt:  NShTT=    2211 NPrTT=    7611 LenC2=    2209 LenP2D=    6510.
 LDataN:  DoStor=T MaxTD1= 6 Len=  172
 Calling FoFJK, ICntrl=    100147 FMM=F ISym2X=0 I1Cent= 0 IOpClX= 0 NMat=1 NMatS=1 NMatT=0.
 ***** Axes restored to original set *****
 -------------------------------------------------------------------
 Center     Atomic                   Forces (Hartrees/Bohr)
 Number     Number              X              Y              Z
 -------------------------------------------------------------------
      1        1           0.004308186   -0.000321426    0.000657783
      2        6          -0.027569148   -0.021843207    0.012651357
      3        1           0.003213572   -0.000738861   -0.003427344
      4        6          -0.009656288    0.031668246    0.003384091
      5        1           0.001053453   -0.002005145   -0.003574084
      6        1           0.003819510   -0.000690662   -0.002136192
      7        1          -0.002291260   -0.003324547    0.000453780
      8        6           0.022164283    0.001990530   -0.014436178
      9        1          -0.001114945   -0.000273075   -0.000442355
     10        6          -0.005911885   -0.008511024    0.007076158
     11        1          -0.001216405    0.000206354    0.001703705
     12        6           0.002694379    0.013835534    0.001718917
     13        1           0.000419225   -0.001493420   -0.001915390
     14        6           0.016456617   -0.006075957   -0.000884055
     15        1          -0.003271176   -0.000921906   -0.002506175
     16        1          -0.003098117   -0.001501432    0.001675981
 -------------------------------------------------------------------
 Cartesian Forces:  Max     0.031668246 RMS     0.009147306
 FormGI is forming the generalized inverse of G from B-inverse, IUseBI=4.

 GradGradGradGradGradGradGradGradGradGradGradGradGradGradGradGradGradGrad
 Berny optimization.
 Internal  Forces:  Max     0.037298379 RMS     0.011354352
 Search for a saddle point.
 Step number   1 out of a maximum of   78
 All quantities printed in internal units (Hartrees-Bohrs-Radians)
 Swapping is turned off.
 Second derivative matrix not updated -- analytic derivatives used.
 ITU=  0
     Eigenvalues ---   -0.13804   0.00373   0.00649   0.01100   0.01653
     Eigenvalues ---    0.01770   0.02870   0.03546   0.03837   0.03986
     Eigenvalues ---    0.04256   0.04693   0.05385   0.05975   0.07438
     Eigenvalues ---    0.07844   0.09769   0.10297   0.11035   0.11353
     Eigenvalues ---    0.12146   0.13636   0.14081   0.16341   0.19178
     Eigenvalues ---    0.26148   0.30541   0.34550   0.34701   0.34945
     Eigenvalues ---    0.35388   0.35592   0.35741   0.35820   0.35982
     Eigenvalues ---    0.36108   0.36981   0.43271   0.47104   0.54785
     Eigenvalues ---    0.70352   0.82254
 Eigenvectors required to have negative eigenvalues:
                          R6        D18       R3        D5        D19
   1                    0.55486   0.28400  -0.23579   0.23391   0.21611
                          D1        R8        D3        A14       D24
   1                   -0.21228  -0.19686  -0.17095   0.15315  -0.15087
 RFO step:  Lambda0=2.335655810D-02 Lambda=-1.49582782D-02.
 Linear search not attempted -- option 19 set.
 Maximum step size (   0.300) exceeded in Quadratic search.
    -- Step size scaled by   0.672
 Iteration  1 RMS(Cart)=  0.03331496 RMS(Int)=  0.00891349
 Iteration  2 RMS(Cart)=  0.01656044 RMS(Int)=  0.00071039
 Iteration  3 RMS(Cart)=  0.00003350 RMS(Int)=  0.00071027
 Iteration  4 RMS(Cart)=  0.00000002 RMS(Int)=  0.00071027
 Variable       Old X    -DE/DX   Delta X   Delta X   Delta X     New X
                                 (Linear)    (Quad)   (Total)
    R1        2.06757  -0.00119   0.00000  -0.00273  -0.00273   2.06484
    R2        2.06477  -0.00139   0.00000  -0.00324  -0.00324   2.06153
    R3        2.65197   0.02825   0.00000  -0.01079  -0.01079   2.64117
    R4        2.07335  -0.00262   0.00000  -0.00767  -0.00767   2.06567
    R5        2.06170   0.00242   0.00000   0.00157   0.00157   2.06327
    R6        3.75432  -0.02427   0.00000   0.27219   0.27219   4.02651
    R7        2.05568   0.00357   0.00000   0.00623   0.00623   2.06191
    R8        2.65003   0.01069   0.00000  -0.01703  -0.01703   2.63301
    R9        2.06540  -0.00101   0.00000  -0.00406  -0.00406   2.06134
   R10        2.07154  -0.00057   0.00000  -0.00296  -0.00296   2.06859
   R11        2.63067  -0.01756   0.00000   0.01079   0.01079   2.64146
   R12        2.07460  -0.00235   0.00000  -0.00343  -0.00343   2.07117
   R13        2.67989  -0.00792   0.00000  -0.03413  -0.03413   2.64576
   R14        2.06497   0.00172   0.00000   0.00274   0.00274   2.06770
   R15        2.05761   0.00394   0.00000   0.00265   0.00265   2.06026
    A1        2.01963  -0.00079   0.00000   0.00088   0.00064   2.02027
    A2        2.08675  -0.00075   0.00000   0.00598   0.00576   2.09251
    A3        2.08653  -0.00047   0.00000   0.00820   0.00797   2.09450
    A4        2.04786   0.00274   0.00000   0.02340   0.02201   2.06986
    A5        2.05362   0.00322   0.00000   0.02373   0.02233   2.07595
    A6        1.94457  -0.02546   0.00000  -0.01966  -0.01933   1.92524
    A7        1.98760  -0.00293   0.00000   0.01293   0.01090   1.99850
    A8        1.69624   0.01082   0.00000  -0.03705  -0.03677   1.65947
    A9        1.64930   0.01115   0.00000  -0.03833  -0.03805   1.61125
   A10        2.09230  -0.00038   0.00000   0.00385   0.00352   2.09581
   A11        2.01338  -0.00127   0.00000  -0.00113  -0.00149   2.01189
   A12        2.07794  -0.00018   0.00000   0.01655   0.01622   2.09416
   A13        2.07360   0.01493   0.00000  -0.00901  -0.00903   2.06456
   A14        2.09831  -0.03581   0.00000   0.01341   0.01338   2.11170
   A15        2.08744   0.01888   0.00000  -0.00728  -0.00730   2.08014
   A16        2.11323  -0.02016   0.00000   0.00722   0.00722   2.12045
   A17        2.07562   0.00896   0.00000  -0.00058  -0.00058   2.07504
   A18        2.07301   0.00952   0.00000  -0.00702  -0.00702   2.06598
   A19        1.82209   0.02405   0.00000   0.00096   0.00149   1.82358
   A20        1.83745  -0.03730   0.00000  -0.04255  -0.04215   1.79530
   A21        1.64462   0.00325   0.00000  -0.06912  -0.06891   1.57571
   A22        2.04851   0.00885   0.00000   0.02648   0.02521   2.07372
   A23        1.96668  -0.00347   0.00000   0.02151   0.01978   1.98646
   A24        2.06814   0.00205   0.00000   0.02351   0.01981   2.08795
    D1       -2.63214   0.00051   0.00000  -0.05675  -0.05731  -2.68944
    D2       -0.15785   0.00396   0.00000   0.03832   0.03882  -0.11903
    D3        1.71839   0.00280   0.00000  -0.00983  -0.00987   1.70852
    D4        0.04706  -0.00454   0.00000  -0.02025  -0.02075   0.02631
    D5        2.52135  -0.00109   0.00000   0.07482   0.07538   2.59673
    D6       -1.88560  -0.00224   0.00000   0.02667   0.02669  -1.85891
    D7        3.12538  -0.00083   0.00000  -0.00471  -0.00471   3.12067
    D8        0.95757  -0.00463   0.00000  -0.01451  -0.01373   0.94384
    D9       -1.15555   0.00136   0.00000  -0.00379  -0.00458  -1.16012
   D10        0.97630   0.00042   0.00000  -0.00318  -0.00310   0.97319
   D11       -1.19151  -0.00338   0.00000  -0.01299  -0.01212  -1.20364
   D12        2.97855   0.00261   0.00000  -0.00227  -0.00297   2.97558
   D13       -1.02710  -0.00012   0.00000  -0.00427  -0.00435  -1.03145
   D14        3.08828  -0.00392   0.00000  -0.01407  -0.01337   3.07491
   D15        0.97516   0.00207   0.00000  -0.00335  -0.00421   0.97095
   D16        2.95986  -0.00225   0.00000   0.02145   0.02138   2.98124
   D17        0.04137   0.00515   0.00000   0.02438   0.02431   0.06569
   D18       -0.66758  -0.00676   0.00000   0.06511   0.06517  -0.60241
   D19        2.69713   0.00064   0.00000   0.06804   0.06810   2.76523
   D20       -2.95377   0.01399   0.00000   0.02126   0.02126  -2.93252
   D21       -0.03496   0.00654   0.00000   0.01914   0.01913  -0.01583
   D22       -0.04588   0.00699   0.00000   0.00633   0.00633  -0.03955
   D23        2.87293  -0.00046   0.00000   0.00420   0.00421   2.87713
   D24       -1.01333   0.02202   0.00000   0.00852   0.00866  -1.00467
   D25       -3.03047   0.01328   0.00000   0.02272   0.02332  -3.00716
   D26        0.79498   0.00351   0.00000  -0.09201  -0.09275   0.70223
   D27        1.89271   0.01436   0.00000  -0.00673  -0.00659   1.88612
   D28       -0.12443   0.00562   0.00000   0.00747   0.00806  -0.11637
   D29       -2.58217  -0.00416   0.00000  -0.10727  -0.10800  -2.69017
         Item               Value     Threshold  Converged?
 Maximum Force            0.037298     0.000450     NO 
 RMS     Force            0.011354     0.000300     NO 
 Maximum Displacement     0.116082     0.001800     NO 
 RMS     Displacement     0.037365     0.001200     NO 
 Predicted change in Energy= 4.006026D-03
 GradGradGradGradGradGradGradGradGradGradGradGradGradGradGradGradGradGrad

                          Input orientation:                          
 ---------------------------------------------------------------------
 Center     Atomic      Atomic             Coordinates (Angstroms)
 Number     Number       Type             X           Y           Z
 ---------------------------------------------------------------------
      1          1           0        0.776040   -1.783145   -1.306401
      2          6           0        1.024620   -1.128662   -0.467487
      3          1           0        1.357076   -1.630074    0.442545
      4          6           0        1.384390    0.200984   -0.704189
      5          1           0        2.020202    0.708808    0.025703
      6          1           0        1.520697    0.536121   -1.734338
      7          1           0       -1.195650   -2.214124    0.556170
      8          6           0       -1.061923   -1.175640    0.249239
      9          1           0        0.096401    2.489195   -0.603558
     10          6           0       -0.720641    1.153135    0.874020
     11          1           0       -1.158481   -0.426045    2.259349
     12          6           0       -1.075068   -0.158699    1.201615
     13          1           0       -0.555150    1.865722    1.690158
     14          6           0       -0.293063    1.483204   -0.417660
     15          1           0       -0.788526    1.036628   -1.280047
     16          1           0       -1.330921   -0.957406   -0.785116
 ---------------------------------------------------------------------
                    Distance matrix (angstroms):
                    1          2          3          4          5
     1  H    0.000000
     2  C    1.092665   0.000000
     3  H    1.849283   1.090916   0.000000
     4  C    2.160907   1.397649   2.160675   0.000000
     5  H    3.087437   2.147258   2.466548   1.093107   0.000000
     6  H    2.473184   2.150002   3.075384   1.091835   1.837680
     7  H    2.746356   2.675014   2.621152   3.752047   4.377971
     8  C    2.483382   2.206709   2.468893   2.964552   3.619476
     9  H    4.382783   3.737512   4.433059   2.627728   2.695693
    10  C    3.951712   3.170516   3.499904   2.797944   2.903324
    11  H    4.277694   3.563037   3.328437   3.954986   4.047356
    12  C    3.515049   2.852265   2.942186   3.132155   3.422869
    13  H    4.905677   4.014653   4.175373   3.502295   3.277392
    14  C    3.549912   2.925853   3.627039   2.130736   2.479406
    15  H    3.224854   2.938747   3.831740   2.398224   3.114707
    16  H    2.322255   2.383021   3.030671   2.953190   3.829323
                    6          7          8          9         10
     6  H    0.000000
     7  H    4.493196   0.000000
     8  C    3.678944   1.091117   0.000000
     9  H    2.668667   5.013539   3.937003   0.000000
    10  C    3.493971   3.415419   2.435162   2.153103   0.000000
    11  H    4.904416   2.469702   2.147500   4.274294   2.145845
    12  C    3.980024   2.157756   1.393327   3.412086   1.397800
    13  H    4.219497   4.282676   3.403373   2.464624   1.096015
    14  C    2.433173   3.928516   2.846990   1.094650   1.400073
    15  H    2.406117   3.755640   2.703256   1.830487   2.158283
    16  H    3.356094   1.843010   1.090815   3.734871   2.753099
                   11         12         13         14         15
    11  H    0.000000
    12  C    1.094182   0.000000
    13  H    2.437249   2.146455   0.000000
    14  C    3.400082   2.435042   2.158218   0.000000
    15  H    3.847546   2.769397   3.092568   1.090241   0.000000
    16  H    3.095294   2.156500   3.833908   2.677452   2.124929
                   16
    16  H    0.000000
 Stoichiometry    C6H10
 Framework group  C1[X(C6H10)]
 Deg. of freedom    42
 Full point group                 C1      NOp   1
 Largest Abelian subgroup         C1      NOp   1
 Largest concise Abelian subgroup C1      NOp   1
                         Standard orientation:                         
 ---------------------------------------------------------------------
 Center     Atomic      Atomic             Coordinates (Angstroms)
 Number     Number       Type             X           Y           Z
 ---------------------------------------------------------------------
      1          1           0       -2.004219   -1.259446    0.615710
      2          6           0       -1.513246   -0.743822   -0.213142
      3          1           0       -1.400659   -1.322299   -1.131176
      4          6           0       -1.513749    0.652945   -0.262766
      5          1           0       -1.424865    1.141885   -1.236378
      6          1           0       -2.102851    1.207495    0.470403
      7          1           0        0.427944   -2.502499    0.329570
      8          6           0        0.469940   -1.422207    0.477025
      9          1           0        0.227215    2.506536    0.399202
     10          6           0        1.282488    0.750669   -0.263507
     11          1           0        1.921726   -1.128870   -1.077975
     12          6           0        1.336305   -0.645847   -0.289810
     13          1           0        1.841555    1.306483   -1.024931
     14          6           0        0.320751    1.420760    0.502159
     15          1           0        0.068183    1.049374    1.495590
     16          1           0        0.151039   -1.073644    1.460226
 ---------------------------------------------------------------------
 Rotational constants (GHZ):      4.3817269      3.6304560      2.3394085
 Standard basis: def2SVP (5D, 7F)
 There are   140 symmetry adapted cartesian basis functions of A   symmetry.
 There are   134 symmetry adapted basis functions of A   symmetry.
   134 basis functions,   220 primitive gaussians,   140 cartesian basis functions
    23 alpha electrons       23 beta electrons
       nuclear repulsion energy       225.8672703581 Hartrees.
 NAtoms=   16 NActive=   16 NUniq=   16 SFac= 1.00D+00 NAtFMM=   60 NAOKFM=F Big=F
 Integral buffers will be    131072 words long.
 Raffenetti 2 integral format.
 Two-electron integral symmetry is turned on.
 Nuclear repulsion after empirical dispersion term =      225.8417538016 Hartrees.
 One-electron integrals computed using PRISM.
   1 Symmetry operations used in ECPInt.
 ECPInt:  NShTT=    2211 NPrTT=    7611 LenC2=    2209 LenP2D=    6501.
 LDataN:  DoStor=T MaxTD1= 4 Len=   56
 NBasis=   134 RedAO= T EigKep=  9.58D-04  NBF=   134
 NBsUse=   134 1.00D-06 EigRej= -1.00D+00 NBFU=   134
 Initial guess from the checkpoint file:  "/tmp/Gau-3243550.chk"
 B after Tr=     0.000000    0.000000    0.000000
         Rot=    0.996432    0.006539   -0.006205    0.083920 Ang=   9.68 deg.
 ExpMin= 1.22D-01 ExpMax= 1.24D+03 ExpMxC= 1.86D+02 IAcc=1 IRadAn=         1 AccDes= 0.00D+00
 Harris functional with IExCor=  402 and IRadAn=       1 diagonalized for initial guess.
 HarFok:  IExCor=  402 AccDes= 0.00D+00 IRadAn=         1 IDoV= 1 UseB2=F ITyADJ=14
 ICtDFT=  3500011 ScaDFX=  1.000000  1.000000  1.000000  1.000000
 FoFCou: FMM=F IPFlag=           0 FMFlag=      100000 FMFlg1=           0
         NFxFlg=           0 DoJE=T BraDBF=F KetDBF=T FulRan=T
         wScrn=  0.000000 ICntrl=     500 IOpCl=  0 I1Cent=   200000004 NGrid=           0
         NMat0=    1 NMatS0=      1 NMatT0=    0 NMatD0=    1 NMtDS0=    0 NMtDT0=    0
 Petite list used in FoFCou.
 Keep R1 ints in memory in canonical form, NReq=42392737.
 Requested convergence on RMS density matrix=1.00D-08 within 128 cycles.
 Requested convergence on MAX density matrix=1.00D-06.
 Requested convergence on             energy=1.00D-06.
 No special actions if energy rises.
 Integral accuracy reduced to 1.0D-05 until final iterations.
 Initial convergence to 1.0D-05 achieved.  Increase integral accuracy.
 SCF Done:  E(RB3LYP) =  -234.403433825     A.U. after   13 cycles
            NFock= 13  Conv=0.51D-08     -V/T= 2.0132
   1 Symmetry operations used in ECPInt.
 ECPInt:  NShTT=    2211 NPrTT=    7611 LenC2=    2209 LenP2D=    6501.
 LDataN:  DoStor=T MaxTD1= 5 Len=  102
 Calling FoFJK, ICntrl=      2127 FMM=F ISym2X=0 I1Cent= 0 IOpClX= 0 NMat=1 NMatS=1 NMatT=0.
 ***** Axes restored to original set *****
 -------------------------------------------------------------------
 Center     Atomic                   Forces (Hartrees/Bohr)
 Number     Number              X              Y              Z
 -------------------------------------------------------------------
      1        1           0.003534215   -0.000508375   -0.000161114
      2        6          -0.015610037   -0.007678237    0.006808467
      3        1           0.002829007   -0.000569871   -0.001878495
      4        6          -0.004482779    0.014469820    0.000195102
      5        1           0.000495697   -0.000623090   -0.001235399
      6        1           0.001392548   -0.000518219   -0.000963965
      7        1          -0.002037570   -0.001085239    0.000094576
      8        6           0.012713277   -0.000068108   -0.006830956
      9        1          -0.000371076   -0.000168401   -0.000271166
     10        6          -0.002041813   -0.004377020    0.004226005
     11        1          -0.000667713    0.000067170    0.000595359
     12        6          -0.001077927    0.006553607    0.001594142
     13        1           0.000412249   -0.000483705   -0.000762262
     14        6           0.008482401   -0.003588180   -0.001301173
     15        1          -0.000723521   -0.000877272   -0.000983469
     16        1          -0.002846960   -0.000544882    0.000874347
 -------------------------------------------------------------------
 Cartesian Forces:  Max     0.015610037 RMS     0.004586822

 GradGradGradGradGradGradGradGradGradGradGradGradGradGradGradGradGradGrad
 Berny optimization.
 FormGI is forming the generalized inverse of G from B-inverse, IUseBI=4.
 Internal  Forces:  Max     0.014052236 RMS     0.004578618
 Search for a saddle point.
 Step number   2 out of a maximum of   78
 All quantities printed in internal units (Hartrees-Bohrs-Radians)
 Swapping is turned off.
 Update second derivatives using D2CorX and points    1    2
 ITU=  0  0
     Eigenvalues ---   -0.13441   0.00441   0.00865   0.01172   0.01660
     Eigenvalues ---    0.01769   0.02879   0.03557   0.03851   0.03985
     Eigenvalues ---    0.04255   0.04727   0.05379   0.05958   0.07432
     Eigenvalues ---    0.07960   0.09773   0.10311   0.11034   0.11353
     Eigenvalues ---    0.12146   0.13639   0.14080   0.16351   0.19173
     Eigenvalues ---    0.26122   0.30538   0.34551   0.34701   0.34945
     Eigenvalues ---    0.35388   0.35592   0.35741   0.35820   0.35981
     Eigenvalues ---    0.36107   0.36981   0.43291   0.47101   0.54788
     Eigenvalues ---    0.70291   0.82175
 Eigenvectors required to have negative eigenvalues:
                          R6        D18       D5        R3        D19
   1                   -0.53079  -0.29169  -0.24061   0.23660  -0.22069
                          D1        R8        D3        D24       A14
   1                    0.21810   0.19875   0.17576   0.15851  -0.14999
 RFO step:  Lambda0=5.625056669D-03 Lambda=-2.62417849D-03.
 Linear search not attempted -- option 19 set.
 Iteration  1 RMS(Cart)=  0.03437472 RMS(Int)=  0.00121023
 Iteration  2 RMS(Cart)=  0.00190374 RMS(Int)=  0.00055833
 Iteration  3 RMS(Cart)=  0.00000114 RMS(Int)=  0.00055833
 Iteration  4 RMS(Cart)=  0.00000000 RMS(Int)=  0.00055833
 Variable       Old X    -DE/DX   Delta X   Delta X   Delta X     New X
                                 (Linear)    (Quad)   (Total)
    R1        2.06484  -0.00037   0.00000  -0.00090  -0.00090   2.06394
    R2        2.06153  -0.00044   0.00000  -0.00117  -0.00117   2.06036
    R3        2.64117   0.01153   0.00000  -0.01848  -0.01848   2.62269
    R4        2.06567  -0.00083   0.00000  -0.00480  -0.00480   2.06087
    R5        2.06327   0.00092   0.00000  -0.00003  -0.00003   2.06324
    R6        4.02651  -0.01244   0.00000   0.20473   0.20473   4.23124
    R7        2.06191   0.00131   0.00000   0.00385   0.00385   2.06576
    R8        2.63301   0.00531   0.00000  -0.01780  -0.01780   2.61521
    R9        2.06134  -0.00024   0.00000  -0.00176  -0.00176   2.05959
   R10        2.06859  -0.00024   0.00000  -0.00274  -0.00274   2.06585
   R11        2.64146  -0.00703   0.00000   0.01525   0.01525   2.65671
   R12        2.07117  -0.00082   0.00000  -0.00161  -0.00161   2.06956
   R13        2.64576  -0.00157   0.00000  -0.02877  -0.02877   2.61698
   R14        2.06770   0.00061   0.00000   0.00149   0.00149   2.06920
   R15        2.06026   0.00146   0.00000  -0.00056  -0.00056   2.05970
    A1        2.02027  -0.00008   0.00000  -0.00452  -0.00452   2.01575
    A2        2.09251  -0.00071   0.00000   0.00226   0.00226   2.09477
    A3        2.09450  -0.00074   0.00000   0.00233   0.00233   2.09683
    A4        2.06986   0.00071   0.00000   0.02033   0.01891   2.08877
    A5        2.07595   0.00099   0.00000   0.01632   0.01492   2.09087
    A6        1.92524  -0.00961   0.00000  -0.01737  -0.01710   1.90814
    A7        1.99850  -0.00083   0.00000   0.01470   0.01267   2.01117
    A8        1.65947   0.00398   0.00000  -0.03953  -0.03927   1.62020
    A9        1.61125   0.00456   0.00000  -0.03726  -0.03706   1.57419
   A10        2.09581  -0.00034   0.00000   0.00251   0.00246   2.09827
   A11        2.01189  -0.00051   0.00000  -0.00593  -0.00598   2.00591
   A12        2.09416  -0.00073   0.00000   0.00975   0.00970   2.10386
   A13        2.06456   0.00601   0.00000  -0.00657  -0.00657   2.05799
   A14        2.11170  -0.01405   0.00000   0.01408   0.01408   2.12577
   A15        2.08014   0.00724   0.00000  -0.00873  -0.00873   2.07140
   A16        2.12045  -0.00842   0.00000   0.00435   0.00432   2.12477
   A17        2.07504   0.00373   0.00000  -0.00088  -0.00090   2.07414
   A18        2.06598   0.00401   0.00000  -0.00588  -0.00590   2.06008
   A19        1.82358   0.00915   0.00000  -0.00614  -0.00589   1.81769
   A20        1.79530  -0.01397   0.00000  -0.01828  -0.01799   1.77731
   A21        1.57571   0.00089   0.00000  -0.07528  -0.07536   1.50035
   A22        2.07372   0.00352   0.00000   0.02199   0.02106   2.09478
   A23        1.98646  -0.00097   0.00000   0.01881   0.01703   2.00348
   A24        2.08795  -0.00021   0.00000   0.01172   0.00920   2.09716
    D1       -2.68944   0.00125   0.00000  -0.01659  -0.01702  -2.70647
    D2       -0.11903   0.00261   0.00000   0.08413   0.08453  -0.03450
    D3        1.70852   0.00245   0.00000   0.03422   0.03425   1.74277
    D4        0.02631  -0.00286   0.00000  -0.01750  -0.01793   0.00838
    D5        2.59673  -0.00151   0.00000   0.08322   0.08362   2.68036
    D6       -1.85891  -0.00167   0.00000   0.03332   0.03335  -1.82556
    D7        3.12067  -0.00040   0.00000  -0.01163  -0.01182   3.10885
    D8        0.94384  -0.00196   0.00000  -0.02502  -0.02450   0.91934
    D9       -1.16012  -0.00002   0.00000  -0.01441  -0.01469  -1.17481
   D10        0.97319   0.00014   0.00000  -0.00867  -0.00877   0.96443
   D11       -1.20364  -0.00142   0.00000  -0.02206  -0.02144  -1.22508
   D12        2.97558   0.00053   0.00000  -0.01144  -0.01163   2.96395
   D13       -1.03145   0.00011   0.00000  -0.01573  -0.01607  -1.04751
   D14        3.07491  -0.00145   0.00000  -0.02912  -0.02875   3.04617
   D15        0.97095   0.00049   0.00000  -0.01851  -0.01893   0.95201
   D16        2.98124   0.00014   0.00000   0.02703   0.02702   3.00825
   D17        0.06569   0.00308   0.00000   0.04021   0.04021   0.10589
   D18       -0.60241  -0.00407   0.00000   0.04184   0.04184  -0.56056
   D19        2.76523  -0.00114   0.00000   0.05502   0.05504   2.82026
   D20       -2.93252   0.00542   0.00000   0.02708   0.02707  -2.90545
   D21       -0.01583   0.00247   0.00000   0.01459   0.01460  -0.00124
   D22       -0.03955   0.00286   0.00000   0.02019   0.02018  -0.01937
   D23        2.87713  -0.00008   0.00000   0.00769   0.00770   2.88484
   D24       -1.00467   0.00821   0.00000  -0.01653  -0.01648  -1.02115
   D25       -3.00716   0.00494   0.00000  -0.00696  -0.00664  -3.01380
   D26        0.70223   0.00075   0.00000  -0.11364  -0.11401   0.58821
   D27        1.88612   0.00542   0.00000  -0.02314  -0.02309   1.86303
   D28       -0.11637   0.00215   0.00000  -0.01357  -0.01325  -0.12962
   D29       -2.69017  -0.00203   0.00000  -0.12025  -0.12062  -2.81079
         Item               Value     Threshold  Converged?
 Maximum Force            0.014052     0.000450     NO 
 RMS     Force            0.004579     0.000300     NO 
 Maximum Displacement     0.115354     0.001800     NO 
 RMS     Displacement     0.035081     0.001200     NO 
 Predicted change in Energy= 1.514019D-03
 GradGradGradGradGradGradGradGradGradGradGradGradGradGradGradGradGradGrad

                          Input orientation:                          
 ---------------------------------------------------------------------
 Center     Atomic      Atomic             Coordinates (Angstroms)
 Number     Number       Type             X           Y           Z
 ---------------------------------------------------------------------
      1          1           0        0.820791   -1.810937   -1.291841
      2          6           0        1.061516   -1.137905   -0.466035
      3          1           0        1.377634   -1.622993    0.457818
      4          6           0        1.429423    0.175025   -0.724946
      5          1           0        2.042640    0.716231   -0.003563
      6          1           0        1.508590    0.522890   -1.756835
      7          1           0       -1.256693   -2.205822    0.548621
      8          6           0       -1.092847   -1.167226    0.249524
      9          1           0        0.055449    2.520088   -0.591297
     10          6           0       -0.730492    1.159284    0.877831
     11          1           0       -1.157991   -0.433074    2.257710
     12          6           0       -1.092592   -0.160591    1.199202
     13          1           0       -0.532356    1.851881    1.702718
     14          6           0       -0.333578    1.516534   -0.399916
     15          1           0       -0.771594    1.023037   -1.267433
     16          1           0       -1.327899   -0.946423   -0.791557
 ---------------------------------------------------------------------
                    Distance matrix (angstroms):
                    1          2          3          4          5
     1  H    0.000000
     2  C    1.092189   0.000000
     3  H    1.845725   1.090295   0.000000
     4  C    2.153102   1.387868   2.152784   0.000000
     5  H    3.088552   2.148093   2.475293   1.090565   0.000000
     6  H    2.477102   2.150414   3.086527   1.091821   1.842974
     7  H    2.803422   2.746646   2.699558   3.808625   4.441723
     8  C    2.540115   2.270279   2.520791   3.018787   3.666435
     9  H    4.453570   3.795889   4.473693   2.721210   2.747409
    10  C    3.992013   3.208481   3.515916   2.864069   2.943368
    11  H    4.291083   3.583544   3.329401   3.995089   4.083908
    12  C    3.548235   2.892808   2.964841   3.189912   3.470611
    13  H    4.920836   4.022777   4.156030   3.543159   3.291155
    14  C    3.633203   2.999451   3.677034   2.239076   2.538502
    15  H    3.250799   2.944861   3.820621   2.420308   3.100227
    16  H    2.369502   2.419077   3.055910   2.977399   3.840037
                    6          7          8          9         10
     6  H    0.000000
     7  H    4.517498   0.000000
     8  C    3.694516   1.093154   0.000000
     9  H    2.731098   5.035410   3.952448   0.000000
    10  C    3.515673   3.421871   2.436949   2.151239   0.000000
    11  H    4.913359   2.464419   2.139167   4.279071   2.149983
    12  C    3.996430   2.152476   1.383908   3.421977   1.405868
    13  H    4.230861   4.280368   3.397194   2.460594   1.095165
    14  C    2.494422   3.950670   2.863708   1.093202   1.384849
    15  H    2.385142   3.736162   2.683582   1.839109   2.149980
    16  H    3.337111   1.840443   1.089886   3.737707   2.752772
                   11         12         13         14         15
    11  H    0.000000
    12  C    1.094972   0.000000
    13  H    2.433199   2.148822   0.000000
    14  C    3.397588   2.438448   2.138467   0.000000
    15  H    3.833562   2.754688   3.092898   1.089946   0.000000
    16  H    3.096841   2.153142   3.832075   2.684811   2.101120
                   16
    16  H    0.000000
 Stoichiometry    C6H10
 Framework group  C1[X(C6H10)]
 Deg. of freedom    42
 Full point group                 C1      NOp   1
 Largest Abelian subgroup         C1      NOp   1
 Largest concise Abelian subgroup C1      NOp   1
                         Standard orientation:                         
 ---------------------------------------------------------------------
 Center     Atomic      Atomic             Coordinates (Angstroms)
 Number     Number       Type             X           Y           Z
 ---------------------------------------------------------------------
      1          1           0       -2.056517   -1.237225    0.608744
      2          6           0       -1.563523   -0.713205   -0.212983
      3          1           0       -1.451786   -1.285193   -1.134443
      4          6           0       -1.560359    0.674185   -0.249270
      5          1           0       -1.453480    1.189103   -1.204659
      6          1           0       -2.079427    1.238457    0.528058
      7          1           0        0.425523   -2.517349    0.363927
      8          6           0        0.473156   -1.432131    0.486480
      9          1           0        0.330942    2.516979    0.408054
     10          6           0        1.303045    0.726356   -0.282245
     11          1           0        1.875663   -1.174321   -1.108055
     12          6           0        1.327788   -0.679187   -0.299575
     13          1           0        1.834524    1.258350   -1.078423
     14          6           0        0.407463    1.430765    0.504868
     15          1           0        0.100997    1.035523    1.473292
     16          1           0        0.148138   -1.065026    1.459850
 ---------------------------------------------------------------------
 Rotational constants (GHZ):      4.3421501      3.4970868      2.2801103
 Standard basis: def2SVP (5D, 7F)
 There are   140 symmetry adapted cartesian basis functions of A   symmetry.
 There are   134 symmetry adapted basis functions of A   symmetry.
   134 basis functions,   220 primitive gaussians,   140 cartesian basis functions
    23 alpha electrons       23 beta electrons
       nuclear repulsion energy       224.3175899658 Hartrees.
 NAtoms=   16 NActive=   16 NUniq=   16 SFac= 1.00D+00 NAtFMM=   60 NAOKFM=F Big=F
 Integral buffers will be    131072 words long.
 Raffenetti 2 integral format.
 Two-electron integral symmetry is turned on.
 Nuclear repulsion after empirical dispersion term =      224.2921021228 Hartrees.
 One-electron integrals computed using PRISM.
   1 Symmetry operations used in ECPInt.
 ECPInt:  NShTT=    2211 NPrTT=    7611 LenC2=    2208 LenP2D=    6485.
 LDataN:  DoStor=T MaxTD1= 4 Len=   56
 NBasis=   134 RedAO= T EigKep=  9.79D-04  NBF=   134
 NBsUse=   134 1.00D-06 EigRej= -1.00D+00 NBFU=   134
 Initial guess from the checkpoint file:  "/tmp/Gau-3243550.chk"
 B after Tr=     0.000000    0.000000    0.000000
         Rot=    0.999922    0.000658   -0.007035    0.010285 Ang=   1.43 deg.
 ExpMin= 1.22D-01 ExpMax= 1.24D+03 ExpMxC= 1.86D+02 IAcc=1 IRadAn=         1 AccDes= 0.00D+00
 Harris functional with IExCor=  402 and IRadAn=       1 diagonalized for initial guess.
 HarFok:  IExCor=  402 AccDes= 0.00D+00 IRadAn=         1 IDoV= 1 UseB2=F ITyADJ=14
 ICtDFT=  3500011 ScaDFX=  1.000000  1.000000  1.000000  1.000000
 FoFCou: FMM=F IPFlag=           0 FMFlag=      100000 FMFlg1=           0
         NFxFlg=           0 DoJE=T BraDBF=F KetDBF=T FulRan=T
         wScrn=  0.000000 ICntrl=     500 IOpCl=  0 I1Cent=   200000004 NGrid=           0
         NMat0=    1 NMatS0=      1 NMatT0=    0 NMatD0=    1 NMtDS0=    0 NMtDT0=    0
 Petite list used in FoFCou.
 Keep R1 ints in memory in canonical form, NReq=42392737.
 Requested convergence on RMS density matrix=1.00D-08 within 128 cycles.
 Requested convergence on MAX density matrix=1.00D-06.
 Requested convergence on             energy=1.00D-06.
 No special actions if energy rises.
 Integral accuracy reduced to 1.0D-05 until final iterations.
 Initial convergence to 1.0D-05 achieved.  Increase integral accuracy.
 SCF Done:  E(RB3LYP) =  -234.401751939     A.U. after   13 cycles
            NFock= 13  Conv=0.53D-08     -V/T= 2.0131
   1 Symmetry operations used in ECPInt.
 ECPInt:  NShTT=    2211 NPrTT=    7611 LenC2=    2208 LenP2D=    6485.
 LDataN:  DoStor=T MaxTD1= 5 Len=  102
 Calling FoFJK, ICntrl=      2127 FMM=F ISym2X=0 I1Cent= 0 IOpClX= 0 NMat=1 NMatS=1 NMatT=0.
 ***** Axes restored to original set *****
 -------------------------------------------------------------------
 Center     Atomic                   Forces (Hartrees/Bohr)
 Number     Number              X              Y              Z
 -------------------------------------------------------------------
      1        1           0.000236969   -0.000124326   -0.000121883
      2        6          -0.002268129   -0.000629429    0.001481909
      3        1           0.000807275   -0.000147582   -0.000211386
      4        6          -0.000584505    0.001240953   -0.000645109
      5        1          -0.000058653    0.000443450    0.000217285
      6        1           0.000354083   -0.000132452   -0.000456388
      7        1          -0.000167186   -0.000025273    0.000041012
      8        6           0.001735823   -0.000780304   -0.001234245
      9        1           0.000146028    0.000091355    0.000014168
     10        6           0.001095022    0.000196090    0.002099310
     11        1          -0.000519728    0.000098110    0.000035263
     12        6          -0.000256364    0.000132315    0.000194329
     13        1          -0.000460597    0.000147410    0.000004294
     14        6           0.000666377   -0.000637973   -0.000927998
     15        1          -0.000030569    0.000082106   -0.000540653
     16        1          -0.000695845    0.000045550    0.000050092
 -------------------------------------------------------------------
 Cartesian Forces:  Max     0.002268129 RMS     0.000727790

 GradGradGradGradGradGradGradGradGradGradGradGradGradGradGradGradGradGrad
 Berny optimization.
 FormGI is forming the generalized inverse of G from B-inverse, IUseBI=4.
 Internal  Forces:  Max     0.002673351 RMS     0.000688054
 Search for a saddle point.
 Step number   3 out of a maximum of   78
 All quantities printed in internal units (Hartrees-Bohrs-Radians)
 Swapping is turned off.
 Update second derivatives using D2CorX and points    2    3
 ITU=  0  0  0
     Eigenvalues ---   -0.12527   0.00367   0.00783   0.01202   0.01664
     Eigenvalues ---    0.01800   0.02879   0.03549   0.03845   0.03980
     Eigenvalues ---    0.04256   0.04712   0.05367   0.05916   0.07417
     Eigenvalues ---    0.07890   0.09764   0.10295   0.11032   0.11353
     Eigenvalues ---    0.12146   0.13636   0.14076   0.16289   0.19129
     Eigenvalues ---    0.25956   0.30517   0.34554   0.34701   0.34945
     Eigenvalues ---    0.35388   0.35593   0.35744   0.35820   0.35979
     Eigenvalues ---    0.36107   0.36980   0.43321   0.47080   0.54780
     Eigenvalues ---    0.70116   0.81935
 Eigenvectors required to have negative eigenvalues:
                          R6        D18       D5        R3        D1
   1                    0.51917   0.29840   0.23889  -0.23416  -0.23135
                          D19       R8        D3        D24       R11
   1                    0.22089  -0.19735  -0.18738  -0.15935   0.15153
 RFO step:  Lambda0=1.220733488D-04 Lambda=-1.70026297D-04.
 Linear search not attempted -- option 19 set.
 Iteration  1 RMS(Cart)=  0.01872676 RMS(Int)=  0.00020211
 Iteration  2 RMS(Cart)=  0.00029863 RMS(Int)=  0.00009033
 Iteration  3 RMS(Cart)=  0.00000009 RMS(Int)=  0.00009033
 Variable       Old X    -DE/DX   Delta X   Delta X   Delta X     New X
                                 (Linear)    (Quad)   (Total)
    R1        2.06394   0.00012   0.00000   0.00062   0.00062   2.06456
    R2        2.06036   0.00012   0.00000   0.00091   0.00091   2.06127
    R3        2.62269   0.00140   0.00000  -0.00389  -0.00389   2.61880
    R4        2.06087   0.00033   0.00000   0.00011   0.00011   2.06098
    R5        2.06324   0.00041   0.00000   0.00044   0.00044   2.06368
    R6        4.23124  -0.00161   0.00000   0.07552   0.07552   4.30677
    R7        2.06576   0.00006   0.00000   0.00047   0.00047   2.06623
    R8        2.61521   0.00133   0.00000   0.00028   0.00028   2.61549
    R9        2.05959   0.00011   0.00000   0.00076   0.00076   2.06034
   R10        2.06585   0.00013   0.00000  -0.00001  -0.00001   2.06584
   R11        2.65671   0.00025   0.00000   0.00461   0.00461   2.66131
   R12        2.06956   0.00001   0.00000  -0.00020  -0.00020   2.06936
   R13        2.61698   0.00093   0.00000  -0.00347  -0.00347   2.61351
   R14        2.06920   0.00004   0.00000   0.00003   0.00003   2.06923
   R15        2.05970   0.00041   0.00000   0.00000   0.00000   2.05970
    A1        2.01575   0.00007   0.00000  -0.00179  -0.00187   2.01388
    A2        2.09477   0.00002   0.00000  -0.00244  -0.00251   2.09226
    A3        2.09683  -0.00034   0.00000  -0.00384  -0.00391   2.09292
    A4        2.08877  -0.00001   0.00000   0.00638   0.00605   2.09483
    A5        2.09087   0.00026   0.00000   0.00553   0.00536   2.09623
    A6        1.90814  -0.00129   0.00000  -0.00784  -0.00781   1.90033
    A7        2.01117  -0.00008   0.00000   0.00486   0.00458   2.01575
    A8        1.62020   0.00025   0.00000  -0.02326  -0.02324   1.59696
    A9        1.57419   0.00075   0.00000  -0.00593  -0.00588   1.56831
   A10        2.09827  -0.00006   0.00000  -0.00242  -0.00245   2.09581
   A11        2.00591   0.00004   0.00000  -0.00115  -0.00118   2.00472
   A12        2.10386  -0.00026   0.00000  -0.00168  -0.00171   2.10216
   A13        2.05799   0.00116   0.00000   0.00510   0.00493   2.06292
   A14        2.12577  -0.00267   0.00000   0.00309   0.00292   2.12869
   A15        2.07140   0.00149   0.00000  -0.00053  -0.00071   2.07069
   A16        2.12477  -0.00085   0.00000   0.00026   0.00025   2.12503
   A17        2.07414   0.00042   0.00000   0.00143   0.00143   2.07557
   A18        2.06008   0.00039   0.00000  -0.00049  -0.00050   2.05958
   A19        1.81769   0.00106   0.00000  -0.00230  -0.00228   1.81541
   A20        1.77731  -0.00191   0.00000  -0.00848  -0.00843   1.76888
   A21        1.50035   0.00026   0.00000  -0.02308  -0.02303   1.47732
   A22        2.09478   0.00061   0.00000   0.00239   0.00225   2.09703
   A23        2.00348  -0.00020   0.00000   0.00450   0.00429   2.00778
   A24        2.09716  -0.00013   0.00000   0.00811   0.00781   2.10496
    D1       -2.70647  -0.00015   0.00000   0.00119   0.00112  -2.70535
    D2       -0.03450   0.00022   0.00000   0.04252   0.04256   0.00806
    D3        1.74277   0.00043   0.00000   0.03260   0.03261   1.77538
    D4        0.00838  -0.00080   0.00000  -0.02081  -0.02087  -0.01249
    D5        2.68036  -0.00044   0.00000   0.02051   0.02057   2.70093
    D6       -1.82556  -0.00023   0.00000   0.01060   0.01062  -1.81494
    D7        3.10885  -0.00033   0.00000  -0.02875  -0.02871   3.08013
    D8        0.91934  -0.00060   0.00000  -0.02653  -0.02642   0.89292
    D9       -1.17481  -0.00044   0.00000  -0.02984  -0.02983  -1.20464
   D10        0.96443  -0.00006   0.00000  -0.02306  -0.02310   0.94132
   D11       -1.22508  -0.00033   0.00000  -0.02084  -0.02081  -1.24589
   D12        2.96395  -0.00017   0.00000  -0.02415  -0.02422   2.93973
   D13       -1.04751  -0.00003   0.00000  -0.02696  -0.02701  -1.07452
   D14        3.04617  -0.00029   0.00000  -0.02474  -0.02472   3.02145
   D15        0.95201  -0.00014   0.00000  -0.02806  -0.02812   0.92389
   D16        3.00825   0.00009   0.00000   0.00551   0.00551   3.01376
   D17        0.10589   0.00021   0.00000  -0.00024  -0.00024   0.10565
   D18       -0.56056  -0.00067   0.00000  -0.00895  -0.00894  -0.56951
   D19        2.82026  -0.00055   0.00000  -0.01470  -0.01470   2.80556
   D20       -2.90545   0.00034   0.00000  -0.01243  -0.01247  -2.91791
   D21       -0.00124   0.00023   0.00000  -0.00647  -0.00651  -0.00775
   D22       -0.01937   0.00044   0.00000   0.02180   0.02184   0.00246
   D23        2.88484   0.00033   0.00000   0.02775   0.02779   2.91263
   D24       -1.02115   0.00069   0.00000  -0.00247  -0.00242  -1.02357
   D25       -3.01380   0.00046   0.00000   0.00542   0.00547  -3.00833
   D26        0.58821  -0.00016   0.00000  -0.03281  -0.03286   0.55535
   D27        1.86303   0.00074   0.00000   0.03281   0.03283   1.89586
   D28       -0.12962   0.00051   0.00000   0.04070   0.04072  -0.08890
   D29       -2.81079  -0.00010   0.00000   0.00247   0.00239  -2.80841
         Item               Value     Threshold  Converged?
 Maximum Force            0.002673     0.000450     NO 
 RMS     Force            0.000688     0.000300     NO 
 Maximum Displacement     0.052872     0.001800     NO 
 RMS     Displacement     0.018820     0.001200     NO 
 Predicted change in Energy=-2.582642D-05
 GradGradGradGradGradGradGradGradGradGradGradGradGradGradGradGradGradGrad

                          Input orientation:                          
 ---------------------------------------------------------------------
 Center     Atomic      Atomic             Coordinates (Angstroms)
 Number     Number       Type             X           Y           Z
 ---------------------------------------------------------------------
      1          1           0        0.831161   -1.833439   -1.271517
      2          6           0        1.065371   -1.144031   -0.456990
      3          1           0        1.389897   -1.612220    0.473211
      4          6           0        1.439758    0.159460   -0.741964
      5          1           0        2.048345    0.720161   -0.031542
      6          1           0        1.493497    0.499827   -1.778227
      7          1           0       -1.259928   -2.203944    0.536126
      8          6           0       -1.087374   -1.165011    0.242228
      9          1           0        0.052696    2.535002   -0.572520
     10          6           0       -0.727012    1.160051    0.886298
     11          1           0       -1.172632   -0.440223    2.254157
     12          6           0       -1.093416   -0.163633    1.197644
     13          1           0       -0.545145    1.854671    1.713088
     14          6           0       -0.344306    1.533057   -0.389288
     15          1           0       -0.768214    1.037980   -1.262891
     16          1           0       -1.322697   -0.937706   -0.797812
 ---------------------------------------------------------------------
                    Distance matrix (angstroms):
                    1          2          3          4          5
     1  H    0.000000
     2  C    1.092516   0.000000
     3  H    1.845318   1.090776   0.000000
     4  C    2.149991   1.385808   2.148950   0.000000
     5  H    3.088680   2.149990   2.475546   1.090625   0.000000
     6  H    2.477817   2.152029   3.088762   1.092053   1.845891
     7  H    2.788817   2.741662   2.715818   3.808871   4.451663
     8  C    2.533574   2.263550   2.527889   3.018154   3.669000
     9  H    4.491979   3.817609   4.481195   2.756057   2.751167
    10  C    4.005627   3.213386   3.512468   2.889171   2.956102
    11  H    4.287961   3.585292   3.333452   4.020067   4.116504
    12  C    3.548099   2.891255   2.964802   3.206780   3.487499
    13  H    4.940065   4.036733   4.159449   3.583415   3.325213
    14  C    3.673329   3.026313   3.693796   2.279042   2.552169
    15  H    3.286810   2.961871   3.833413   2.432756   3.090346
    16  H    2.380302   2.421073   3.070608   2.972886   3.834008
                    6          7          8          9         10
     6  H    0.000000
     7  H    4.499773   0.000000
     8  C    3.676251   1.093404   0.000000
     9  H    2.769760   5.040802   3.956472   0.000000
    10  C    3.530758   3.423898   2.439385   2.150949   0.000000
    11  H    4.924638   2.463729   2.140198   4.282930   2.151858
    12  C    3.998513   2.151326   1.384058   3.424862   1.408306
    13  H    4.263912   4.285850   3.402341   2.458509   1.095059
    14  C    2.524725   3.957263   2.868890   1.093197   1.383010
    15  H    2.381284   3.740096   2.687083   1.841624   2.153048
    16  H    3.310387   1.840296   1.090287   3.741946   2.755295
                   11         12         13         14         15
    11  H    0.000000
    12  C    1.094987   0.000000
    13  H    2.439884   2.154027   0.000000
    14  C    3.401140   2.440957   2.136295   0.000000
    15  H    3.836439   2.757510   3.094059   1.089946   0.000000
    16  H    3.095888   2.152580   3.834915   2.688644   2.104064
                   16
    16  H    0.000000
 Stoichiometry    C6H10
 Framework group  C1[X(C6H10)]
 Deg. of freedom    42
 Full point group                 C1      NOp   1
 Largest Abelian subgroup         C1      NOp   1
 Largest concise Abelian subgroup C1      NOp   1
                         Standard orientation:                         
 ---------------------------------------------------------------------
 Center     Atomic      Atomic             Coordinates (Angstroms)
 Number     Number       Type             X           Y           Z
 ---------------------------------------------------------------------
      1          1           0       -2.098888   -1.191456    0.590994
      2          6           0       -1.585064   -0.669058   -0.219362
      3          1           0       -1.489329   -1.229353   -1.150327
      4          6           0       -1.559520    0.716349   -0.240765
      5          1           0       -1.432123    1.245275   -1.186001
      6          1           0       -2.045382    1.285515    0.554576
      7          1           0        0.341307   -2.525203    0.381080
      8          6           0        0.420497   -1.440358    0.492311
      9          1           0        0.431214    2.514788    0.390462
     10          6           0        1.329004    0.683256   -0.292215
     11          1           0        1.843611   -1.246063   -1.094335
     12          6           0        1.304628   -0.724833   -0.296328
     13          1           0        1.891044    1.193326   -1.081578
     14          6           0        0.474737    1.428008    0.500432
     15          1           0        0.141632    1.048411    1.466314
     16          1           0        0.111213   -1.055433    1.464372
 ---------------------------------------------------------------------
 Rotational constants (GHZ):      4.3323096      3.4678259      2.2651665
 Standard basis: def2SVP (5D, 7F)
 There are   140 symmetry adapted cartesian basis functions of A   symmetry.
 There are   134 symmetry adapted basis functions of A   symmetry.
   134 basis functions,   220 primitive gaussians,   140 cartesian basis functions
    23 alpha electrons       23 beta electrons
       nuclear repulsion energy       223.9030889448 Hartrees.
 NAtoms=   16 NActive=   16 NUniq=   16 SFac= 1.00D+00 NAtFMM=   60 NAOKFM=F Big=F
 Integral buffers will be    131072 words long.
 Raffenetti 2 integral format.
 Two-electron integral symmetry is turned on.
 Nuclear repulsion after empirical dispersion term =      223.8776564913 Hartrees.
 One-electron integrals computed using PRISM.
   1 Symmetry operations used in ECPInt.
 ECPInt:  NShTT=    2211 NPrTT=    7611 LenC2=    2208 LenP2D=    6478.
 LDataN:  DoStor=T MaxTD1= 4 Len=   56
 NBasis=   134 RedAO= T EigKep=  9.84D-04  NBF=   134
 NBsUse=   134 1.00D-06 EigRej= -1.00D+00 NBFU=   134
 Initial guess from the checkpoint file:  "/tmp/Gau-3243550.chk"
 B after Tr=     0.000000    0.000000    0.000000
         Rot=    0.999868    0.001388   -0.000806    0.016181 Ang=   1.86 deg.
 ExpMin= 1.22D-01 ExpMax= 1.24D+03 ExpMxC= 1.86D+02 IAcc=1 IRadAn=         1 AccDes= 0.00D+00
 Harris functional with IExCor=  402 and IRadAn=       1 diagonalized for initial guess.
 HarFok:  IExCor=  402 AccDes= 0.00D+00 IRadAn=         1 IDoV= 1 UseB2=F ITyADJ=14
 ICtDFT=  3500011 ScaDFX=  1.000000  1.000000  1.000000  1.000000
 FoFCou: FMM=F IPFlag=           0 FMFlag=      100000 FMFlg1=           0
         NFxFlg=           0 DoJE=T BraDBF=F KetDBF=T FulRan=T
         wScrn=  0.000000 ICntrl=     500 IOpCl=  0 I1Cent=   200000004 NGrid=           0
         NMat0=    1 NMatS0=      1 NMatT0=    0 NMatD0=    1 NMtDS0=    0 NMtDT0=    0
 Petite list used in FoFCou.
 Keep R1 ints in memory in canonical form, NReq=42392737.
 Requested convergence on RMS density matrix=1.00D-08 within 128 cycles.
 Requested convergence on MAX density matrix=1.00D-06.
 Requested convergence on             energy=1.00D-06.
 No special actions if energy rises.
 Integral accuracy reduced to 1.0D-05 until final iterations.
 Initial convergence to 1.0D-05 achieved.  Increase integral accuracy.
 SCF Done:  E(RB3LYP) =  -234.401759918     A.U. after   12 cycles
            NFock= 12  Conv=0.71D-08     -V/T= 2.0131
   1 Symmetry operations used in ECPInt.
 ECPInt:  NShTT=    2211 NPrTT=    7611 LenC2=    2208 LenP2D=    6478.
 LDataN:  DoStor=T MaxTD1= 5 Len=  102
 Calling FoFJK, ICntrl=      2127 FMM=F ISym2X=0 I1Cent= 0 IOpClX= 0 NMat=1 NMatS=1 NMatT=0.
 ***** Axes restored to original set *****
 -------------------------------------------------------------------
 Center     Atomic                   Forces (Hartrees/Bohr)
 Number     Number              X              Y              Z
 -------------------------------------------------------------------
      1        1          -0.000334549    0.000038187    0.000092866
      2        6           0.000422887   -0.000240830    0.000393683
      3        1           0.000120072   -0.000049435   -0.000118750
      4        6          -0.000492596    0.000389646   -0.000268390
      5        1          -0.000131125    0.000231868    0.000017372
      6        1           0.000315183   -0.000164908   -0.000176437
      7        1           0.000010402    0.000025734   -0.000012626
      8        6          -0.000346980    0.000091625    0.000087353
      9        1          -0.000231876    0.000125725   -0.000046421
     10        6          -0.000670532    0.000651056    0.000010088
     11        1           0.000083941   -0.000067240   -0.000017077
     12        6           0.000045672   -0.000112017   -0.000311000
     13        1           0.000274392   -0.000411327    0.000286380
     14        6           0.000762834   -0.000423947    0.000127187
     15        1           0.000113740   -0.000030597   -0.000144172
     16        1           0.000058535   -0.000053539    0.000079946
 -------------------------------------------------------------------
 Cartesian Forces:  Max     0.000762834 RMS     0.000273776

 GradGradGradGradGradGradGradGradGradGradGradGradGradGradGradGradGradGrad
 Berny optimization.
 FormGI is forming the generalized inverse of G from B-inverse, IUseBI=4.
 Internal  Forces:  Max     0.000478034 RMS     0.000179064
 Search for a saddle point.
 Step number   4 out of a maximum of   78
 All quantities printed in internal units (Hartrees-Bohrs-Radians)
 Swapping is turned off.
 Update second derivatives using D2CorX and points    2    3    4
 ITU=  0  0  0  0
     Eigenvalues ---   -0.12599   0.00307   0.01035   0.01230   0.01686
     Eigenvalues ---    0.01810   0.02878   0.03564   0.03842   0.03974
     Eigenvalues ---    0.04257   0.04706   0.05365   0.05900   0.07409
     Eigenvalues ---    0.07856   0.09774   0.10303   0.11033   0.11356
     Eigenvalues ---    0.12161   0.13637   0.14074   0.16274   0.19106
     Eigenvalues ---    0.25929   0.30531   0.34554   0.34700   0.34945
     Eigenvalues ---    0.35388   0.35594   0.35744   0.35821   0.35982
     Eigenvalues ---    0.36106   0.36980   0.43320   0.47073   0.54771
     Eigenvalues ---    0.70055   0.81814
 Eigenvectors required to have negative eigenvalues:
                          R6        D18       D5        R3        D1
   1                    0.51947   0.29796   0.23741  -0.23298  -0.23246
                          D19       R8        D3        D24       R11
   1                    0.22046  -0.19797  -0.18421  -0.15977   0.15185
 RFO step:  Lambda0=1.536652863D-07 Lambda=-4.09219968D-05.
 Linear search not attempted -- option 19 set.
 Iteration  1 RMS(Cart)=  0.00789388 RMS(Int)=  0.00003888
 Iteration  2 RMS(Cart)=  0.00005198 RMS(Int)=  0.00001260
 Iteration  3 RMS(Cart)=  0.00000000 RMS(Int)=  0.00001260
 Variable       Old X    -DE/DX   Delta X   Delta X   Delta X     New X
                                 (Linear)    (Quad)   (Total)
    R1        2.06456  -0.00002   0.00000  -0.00021  -0.00021   2.06435
    R2        2.06127  -0.00004   0.00000  -0.00015  -0.00015   2.06111
    R3        2.61880   0.00025   0.00000   0.00120   0.00120   2.62000
    R4        2.06098   0.00006   0.00000   0.00029   0.00029   2.06127
    R5        2.06368   0.00013   0.00000   0.00055   0.00055   2.06423
    R6        4.30677  -0.00020   0.00000  -0.01321  -0.01321   4.29355
    R7        2.06623  -0.00003   0.00000  -0.00013  -0.00013   2.06610
    R8        2.61549  -0.00015   0.00000  -0.00124  -0.00124   2.61425
    R9        2.06034  -0.00010   0.00000  -0.00037  -0.00037   2.05997
   R10        2.06584   0.00004   0.00000   0.00029   0.00029   2.06613
   R11        2.66131   0.00011   0.00000   0.00031   0.00031   2.66163
   R12        2.06936   0.00000   0.00000  -0.00003  -0.00003   2.06933
   R13        2.61351   0.00023   0.00000   0.00116   0.00116   2.61467
   R14        2.06923  -0.00001   0.00000   0.00011   0.00011   2.06934
   R15        2.05970   0.00009   0.00000   0.00037   0.00037   2.06007
    A1        2.01388  -0.00006   0.00000   0.00009   0.00008   2.01396
    A2        2.09226   0.00014   0.00000   0.00086   0.00085   2.09311
    A3        2.09292  -0.00003   0.00000   0.00144   0.00144   2.09435
    A4        2.09483  -0.00008   0.00000   0.00056   0.00056   2.09538
    A5        2.09623   0.00006   0.00000  -0.00233  -0.00235   2.09388
    A6        1.90033   0.00013   0.00000   0.00229   0.00229   1.90262
    A7        2.01575  -0.00003   0.00000  -0.00086  -0.00086   2.01489
    A8        1.59696  -0.00019   0.00000  -0.00225  -0.00224   1.59472
    A9        1.56831   0.00016   0.00000   0.00625   0.00625   1.57456
   A10        2.09581  -0.00001   0.00000   0.00041   0.00040   2.09621
   A11        2.00472  -0.00003   0.00000   0.00039   0.00039   2.00511
   A12        2.10216   0.00006   0.00000   0.00174   0.00174   2.10389
   A13        2.06292  -0.00017   0.00000  -0.00533  -0.00536   2.05756
   A14        2.12869  -0.00033   0.00000  -0.00215  -0.00219   2.12650
   A15        2.07069   0.00048   0.00000   0.00435   0.00430   2.07499
   A16        2.12503   0.00027   0.00000   0.00209   0.00209   2.12711
   A17        2.07557  -0.00017   0.00000  -0.00178  -0.00178   2.07378
   A18        2.05958  -0.00008   0.00000  -0.00064  -0.00064   2.05894
   A19        1.81541  -0.00018   0.00000   0.00059   0.00058   1.81599
   A20        1.76888   0.00023   0.00000   0.00571   0.00570   1.77459
   A21        1.47732   0.00007   0.00000   0.00140   0.00141   1.47873
   A22        2.09703   0.00013   0.00000  -0.00022  -0.00024   2.09679
   A23        2.00778  -0.00005   0.00000  -0.00259  -0.00260   2.00518
   A24        2.10496  -0.00014   0.00000  -0.00050  -0.00052   2.10444
    D1       -2.70535  -0.00022   0.00000   0.00420   0.00420  -2.70115
    D2        0.00806  -0.00035   0.00000  -0.00301  -0.00301   0.00506
    D3        1.77538  -0.00004   0.00000   0.00520   0.00519   1.78057
    D4       -0.01249  -0.00011   0.00000   0.01024   0.01024  -0.00225
    D5        2.70093  -0.00024   0.00000   0.00303   0.00304   2.70397
    D6       -1.81494   0.00007   0.00000   0.01124   0.01124  -1.80370
    D7        3.08013  -0.00018   0.00000  -0.00856  -0.00856   3.07158
    D8        0.89292  -0.00035   0.00000  -0.01111  -0.01112   0.88180
    D9       -1.20464  -0.00022   0.00000  -0.01090  -0.01090  -1.21554
   D10        0.94132  -0.00006   0.00000  -0.00879  -0.00878   0.93254
   D11       -1.24589  -0.00022   0.00000  -0.01134  -0.01134  -1.25723
   D12        2.93973  -0.00009   0.00000  -0.01113  -0.01113   2.92860
   D13       -1.07452  -0.00003   0.00000  -0.00808  -0.00807  -1.08259
   D14        3.02145  -0.00020   0.00000  -0.01063  -0.01063   3.01082
   D15        0.92389  -0.00006   0.00000  -0.01042  -0.01041   0.91348
   D16        3.01376   0.00003   0.00000  -0.00075  -0.00075   3.01301
   D17        0.10565  -0.00006   0.00000   0.00104   0.00104   0.10668
   D18       -0.56951   0.00008   0.00000   0.00596   0.00596  -0.56354
   D19        2.80556  -0.00001   0.00000   0.00775   0.00775   2.81331
   D20       -2.91791  -0.00017   0.00000   0.01215   0.01212  -2.90579
   D21       -0.00775  -0.00009   0.00000   0.01023   0.01020   0.00245
   D22        0.00246  -0.00022   0.00000  -0.00366  -0.00363  -0.00117
   D23        2.91263  -0.00014   0.00000  -0.00558  -0.00556   2.90707
   D24       -1.02357  -0.00028   0.00000   0.00166   0.00168  -1.02189
   D25       -3.00833  -0.00028   0.00000  -0.00309  -0.00307  -3.01140
   D26        0.55535  -0.00009   0.00000   0.00660   0.00661   0.56197
   D27        1.89586  -0.00041   0.00000  -0.01540  -0.01542   1.88045
   D28       -0.08890  -0.00041   0.00000  -0.02015  -0.02017  -0.10907
   D29       -2.80841  -0.00022   0.00000  -0.01046  -0.01048  -2.81889
         Item               Value     Threshold  Converged?
 Maximum Force            0.000478     0.000450     NO 
 RMS     Force            0.000179     0.000300     YES
 Maximum Displacement     0.020823     0.001800     NO 
 RMS     Displacement     0.007896     0.001200     NO 
 Predicted change in Energy=-2.043859D-05
 GradGradGradGradGradGradGradGradGradGradGradGradGradGradGradGradGradGrad

                          Input orientation:                          
 ---------------------------------------------------------------------
 Center     Atomic      Atomic             Coordinates (Angstroms)
 Number     Number       Type             X           Y           Z
 ---------------------------------------------------------------------
      1          1           0        0.835001   -1.837429   -1.260813
      2          6           0        1.068844   -1.141616   -0.451793
      3          1           0        1.392770   -1.602262    0.482279
      4          6           0        1.436837    0.162381   -0.745730
      5          1           0        2.048507    0.729133   -0.042561
      6          1           0        1.487936    0.493811   -1.785325
      7          1           0       -1.266955   -2.203770    0.532457
      8          6           0       -1.092987   -1.164864    0.239559
      9          1           0        0.055737    2.534171   -0.570164
     10          6           0       -0.728267    1.159506    0.887412
     11          1           0       -1.175180   -0.443640    2.251149
     12          6           0       -1.096984   -0.164555    1.195154
     13          1           0       -0.535602    1.844238    1.719961
     14          6           0       -0.340532    1.531651   -0.387575
     15          1           0       -0.767035    1.040549   -1.262405
     16          1           0       -1.322089   -0.937304   -0.801606
 ---------------------------------------------------------------------
                    Distance matrix (angstroms):
                    1          2          3          4          5
     1  H    0.000000
     2  C    1.092406   0.000000
     3  H    1.845204   1.090694   0.000000
     4  C    2.150990   1.386444   2.150329   0.000000
     5  H    3.089332   2.151026   2.478074   1.090777   0.000000
     6  H    2.477119   2.151411   3.089435   1.092344   1.845763
     7  H    2.787156   2.748249   2.727355   3.813518   4.463726
     8  C    2.533890   2.269806   2.535590   3.021983   3.679103
     9  H    4.493900   3.814683   4.472736   2.750209   2.740011
    10  C    4.005033   3.212201   3.505751   2.889478   2.959821
    11  H    4.279877   3.581719   3.326510   4.021340   4.126580
    12  C    3.544411   2.891002   2.962105   3.208452   3.496388
    13  H    4.931353   4.025679   4.138700   3.577540   3.320777
    14  C    3.673571   3.022718   3.685429   2.272051   2.543732
    15  H    3.293825   2.964690   3.833162   2.428000   3.084197
    16  H    2.382044   2.425010   3.075872   2.970539   3.835893
                    6          7          8          9         10
     6  H    0.000000
     7  H    4.498720   0.000000
     8  C    3.675938   1.093334   0.000000
     9  H    2.773243   5.041167   3.957028   0.000000
    10  C    3.535283   3.424587   2.440374   2.151486   0.000000
    11  H    4.925863   2.461784   2.138553   4.282793   2.151647
    12  C    3.999814   2.150920   1.383400   3.424651   1.408472
    13  H    4.266778   4.281520   3.399553   2.463810   1.095042
    14  C    2.524700   3.957030   2.868916   1.093350   1.383626
    15  H    2.378500   3.741264   2.688120   1.840396   2.153454
    16  H    3.303337   1.840298   1.090090   3.742073   2.757175
                   11         12         13         14         15
    11  H    0.000000
    12  C    1.095047   0.000000
    13  H    2.434257   2.150772   0.000000
    14  C    3.400187   2.440157   2.139502   0.000000
    15  H    3.835943   2.756944   3.097416   1.090144   0.000000
    16  H    3.095900   2.152874   3.835862   2.688980   2.105309
                   16
    16  H    0.000000
 Stoichiometry    C6H10
 Framework group  C1[X(C6H10)]
 Deg. of freedom    42
 Full point group                 C1      NOp   1
 Largest Abelian subgroup         C1      NOp   1
 Largest concise Abelian subgroup C1      NOp   1
                         Standard orientation:                         
 ---------------------------------------------------------------------
 Center     Atomic      Atomic             Coordinates (Angstroms)
 Number     Number       Type             X           Y           Z
 ---------------------------------------------------------------------
      1          1           0       -2.081023   -1.226011    0.579318
      2          6           0       -1.575476   -0.688296   -0.226062
      3          1           0       -1.467610   -1.239729   -1.160888
      4          6           0       -1.568685    0.698106   -0.234340
      5          1           0       -1.453423    1.238264   -1.174945
      6          1           0       -2.064575    1.251021    0.566655
      7          1           0        0.378765   -2.521916    0.383574
      8          6           0        0.442724   -1.436135    0.494788
      9          1           0        0.395367    2.519220    0.389915
     10          6           0        1.320203    0.700532   -0.292685
     11          1           0        1.858183   -1.222502   -1.094000
     12          6           0        1.314645   -0.707928   -0.294683
     13          1           0        1.866223    1.211742   -1.092462
     14          6           0        0.452647    1.432761    0.498268
     15          1           0        0.128098    1.050489    1.466230
     16          1           0        0.123654   -1.054815    1.464883
 ---------------------------------------------------------------------
 Rotational constants (GHZ):      4.3310140      3.4684099      2.2654235
 Standard basis: def2SVP (5D, 7F)
 There are   140 symmetry adapted cartesian basis functions of A   symmetry.
 There are   134 symmetry adapted basis functions of A   symmetry.
   134 basis functions,   220 primitive gaussians,   140 cartesian basis functions
    23 alpha electrons       23 beta electrons
       nuclear repulsion energy       223.8965306779 Hartrees.
 NAtoms=   16 NActive=   16 NUniq=   16 SFac= 1.00D+00 NAtFMM=   60 NAOKFM=F Big=F
 Integral buffers will be    131072 words long.
 Raffenetti 2 integral format.
 Two-electron integral symmetry is turned on.
 Nuclear repulsion after empirical dispersion term =      223.8710967981 Hartrees.
 One-electron integrals computed using PRISM.
   1 Symmetry operations used in ECPInt.
 ECPInt:  NShTT=    2211 NPrTT=    7611 LenC2=    2208 LenP2D=    6478.
 LDataN:  DoStor=T MaxTD1= 4 Len=   56
 NBasis=   134 RedAO= T EigKep=  9.87D-04  NBF=   134
 NBsUse=   134 1.00D-06 EigRej= -1.00D+00 NBFU=   134
 Initial guess from the checkpoint file:  "/tmp/Gau-3243550.chk"
 B after Tr=     0.000000    0.000000    0.000000
         Rot=    0.999977   -0.000530   -0.000080   -0.006729 Ang=  -0.77 deg.
 ExpMin= 1.22D-01 ExpMax= 1.24D+03 ExpMxC= 1.86D+02 IAcc=1 IRadAn=         1 AccDes= 0.00D+00
 Harris functional with IExCor=  402 and IRadAn=       1 diagonalized for initial guess.
 HarFok:  IExCor=  402 AccDes= 0.00D+00 IRadAn=         1 IDoV= 1 UseB2=F ITyADJ=14
 ICtDFT=  3500011 ScaDFX=  1.000000  1.000000  1.000000  1.000000
 FoFCou: FMM=F IPFlag=           0 FMFlag=      100000 FMFlg1=           0
         NFxFlg=           0 DoJE=T BraDBF=F KetDBF=T FulRan=T
         wScrn=  0.000000 ICntrl=     500 IOpCl=  0 I1Cent=   200000004 NGrid=           0
         NMat0=    1 NMatS0=      1 NMatT0=    0 NMatD0=    1 NMtDS0=    0 NMtDT0=    0
 Petite list used in FoFCou.
 Keep R1 ints in memory in canonical form, NReq=42392737.
 Requested convergence on RMS density matrix=1.00D-08 within 128 cycles.
 Requested convergence on MAX density matrix=1.00D-06.
 Requested convergence on             energy=1.00D-06.
 No special actions if energy rises.
 Integral accuracy reduced to 1.0D-05 until final iterations.
 Initial convergence to 1.0D-05 achieved.  Increase integral accuracy.
 SCF Done:  E(RB3LYP) =  -234.401781207     A.U. after   10 cycles
            NFock= 10  Conv=0.97D-08     -V/T= 2.0131
   1 Symmetry operations used in ECPInt.
 ECPInt:  NShTT=    2211 NPrTT=    7611 LenC2=    2208 LenP2D=    6478.
 LDataN:  DoStor=T MaxTD1= 5 Len=  102
 Calling FoFJK, ICntrl=      2127 FMM=F ISym2X=0 I1Cent= 0 IOpClX= 0 NMat=1 NMatS=1 NMatT=0.
 ***** Axes restored to original set *****
 -------------------------------------------------------------------
 Center     Atomic                   Forces (Hartrees/Bohr)
 Number     Number              X              Y              Z
 -------------------------------------------------------------------
      1        1          -0.000241025    0.000040375    0.000023053
      2        6           0.000263655    0.000268087    0.000173281
      3        1           0.000092192   -0.000011839   -0.000028171
      4        6          -0.000357454   -0.000113692   -0.000149727
      5        1          -0.000137311    0.000049802    0.000003710
      6        1           0.000218102   -0.000104647   -0.000017442
      7        1           0.000026890   -0.000004608    0.000002042
      8        6          -0.000044342   -0.000111095   -0.000119942
      9        1           0.000002767   -0.000003657    0.000047729
     10        6           0.000270753   -0.000235596   -0.000117096
     11        1          -0.000025392    0.000004873   -0.000003169
     12        6          -0.000025414   -0.000016051    0.000002193
     13        1          -0.000115772    0.000184278   -0.000122282
     14        6           0.000155906    0.000028579    0.000254896
     15        1          -0.000050249    0.000011636    0.000061934
     16        1          -0.000033305    0.000013555   -0.000011010
 -------------------------------------------------------------------
 Cartesian Forces:  Max     0.000357454 RMS     0.000130748

 GradGradGradGradGradGradGradGradGradGradGradGradGradGradGradGradGradGrad
 Berny optimization.
 FormGI is forming the generalized inverse of G from B-inverse, IUseBI=4.
 Internal  Forces:  Max     0.000310779 RMS     0.000106941
 Search for a saddle point.
 Step number   5 out of a maximum of   78
 All quantities printed in internal units (Hartrees-Bohrs-Radians)
 Swapping is turned off.
 Update second derivatives using D2CorX and points    2    3    4    5
 ITU=  0  0  0  0  0
     Eigenvalues ---   -0.12522   0.00236   0.01003   0.01543   0.01643
     Eigenvalues ---    0.01859   0.02875   0.03562   0.03813   0.03976
     Eigenvalues ---    0.04056   0.04703   0.05331   0.05902   0.07393
     Eigenvalues ---    0.07849   0.09780   0.10298   0.11033   0.11375
     Eigenvalues ---    0.12201   0.13637   0.14071   0.16238   0.19122
     Eigenvalues ---    0.25951   0.30519   0.34555   0.34701   0.34945
     Eigenvalues ---    0.35388   0.35595   0.35743   0.35821   0.35981
     Eigenvalues ---    0.36109   0.36980   0.43315   0.47083   0.54757
     Eigenvalues ---    0.70067   0.81848
 Eigenvectors required to have negative eigenvalues:
                          R6        D18       D5        R3        D1
   1                   -0.52052  -0.29714  -0.23671   0.23441   0.23406
                          D19       R8        D3        D24       R11
   1                   -0.21892   0.19718   0.18720   0.16010  -0.15169
 RFO step:  Lambda0=9.586004168D-08 Lambda=-1.10016854D-05.
 Linear search not attempted -- option 19 set.
 Iteration  1 RMS(Cart)=  0.00728531 RMS(Int)=  0.00002412
 Iteration  2 RMS(Cart)=  0.00004598 RMS(Int)=  0.00000319
 Iteration  3 RMS(Cart)=  0.00000000 RMS(Int)=  0.00000319
 Variable       Old X    -DE/DX   Delta X   Delta X   Delta X     New X
                                 (Linear)    (Quad)   (Total)
    R1        2.06435   0.00001   0.00000  -0.00011  -0.00011   2.06424
    R2        2.06111   0.00001   0.00000  -0.00001  -0.00001   2.06111
    R3        2.62000  -0.00027   0.00000  -0.00071  -0.00071   2.61929
    R4        2.06127  -0.00005   0.00000  -0.00017  -0.00017   2.06110
    R5        2.06423   0.00000   0.00000   0.00013   0.00013   2.06436
    R6        4.29355  -0.00020   0.00000  -0.00136  -0.00136   4.29220
    R7        2.06610   0.00000   0.00000  -0.00002  -0.00002   2.06608
    R8        2.61425   0.00016   0.00000  -0.00015  -0.00015   2.61410
    R9        2.05997   0.00002   0.00000   0.00001   0.00001   2.05998
   R10        2.06613  -0.00001   0.00000  -0.00003  -0.00003   2.06610
   R11        2.66163   0.00011   0.00000  -0.00009  -0.00009   2.66154
   R12        2.06933   0.00000   0.00000   0.00001   0.00001   2.06934
   R13        2.61467  -0.00031   0.00000  -0.00061  -0.00061   2.61406
   R14        2.06934   0.00000   0.00000   0.00000   0.00000   2.06933
   R15        2.06007  -0.00003   0.00000  -0.00003  -0.00003   2.06004
    A1        2.01396   0.00001   0.00000   0.00056   0.00056   2.01452
    A2        2.09311   0.00007   0.00000   0.00063   0.00063   2.09373
    A3        2.09435  -0.00005   0.00000   0.00092   0.00092   2.09527
    A4        2.09538  -0.00005   0.00000   0.00037   0.00037   2.09575
    A5        2.09388   0.00007   0.00000  -0.00099  -0.00100   2.09288
    A6        1.90262  -0.00021   0.00000   0.00164   0.00164   1.90426
    A7        2.01489  -0.00002   0.00000  -0.00058  -0.00057   2.01431
    A8        1.59472   0.00002   0.00000  -0.00484  -0.00484   1.58988
    A9        1.57456   0.00020   0.00000   0.00597   0.00597   1.58053
   A10        2.09621   0.00001   0.00000   0.00031   0.00031   2.09652
   A11        2.00511   0.00001   0.00000   0.00048   0.00048   2.00559
   A12        2.10389  -0.00002   0.00000   0.00024   0.00024   2.10414
   A13        2.05756   0.00026   0.00000   0.00180   0.00179   2.05935
   A14        2.12650  -0.00016   0.00000   0.00144   0.00144   2.12794
   A15        2.07499  -0.00009   0.00000  -0.00208  -0.00209   2.07291
   A16        2.12711  -0.00002   0.00000  -0.00008  -0.00008   2.12704
   A17        2.07378   0.00002   0.00000   0.00001   0.00001   2.07379
   A18        2.05894   0.00000   0.00000   0.00005   0.00005   2.05899
   A19        1.81599   0.00008   0.00000   0.00040   0.00040   1.81639
   A20        1.77459  -0.00019   0.00000   0.00179   0.00179   1.77637
   A21        1.47873   0.00010   0.00000  -0.00066  -0.00066   1.47807
   A22        2.09679   0.00013   0.00000  -0.00130  -0.00130   2.09549
   A23        2.00518   0.00002   0.00000   0.00036   0.00036   2.00554
   A24        2.10444  -0.00014   0.00000   0.00033   0.00033   2.10478
    D1       -2.70115  -0.00019   0.00000   0.00078   0.00077  -2.70038
    D2        0.00506  -0.00019   0.00000  -0.00251  -0.00251   0.00255
    D3        1.78057  -0.00005   0.00000   0.00556   0.00555   1.78613
    D4       -0.00225  -0.00011   0.00000   0.00634   0.00634   0.00409
    D5        2.70397  -0.00010   0.00000   0.00305   0.00305   2.70702
    D6       -1.80370   0.00004   0.00000   0.01112   0.01111  -1.79259
    D7        3.07158  -0.00013   0.00000  -0.01385  -0.01385   3.05773
    D8        0.88180  -0.00022   0.00000  -0.01338  -0.01338   0.86842
    D9       -1.21554  -0.00009   0.00000  -0.01362  -0.01362  -1.22917
   D10        0.93254  -0.00003   0.00000  -0.01260  -0.01260   0.91994
   D11       -1.25723  -0.00012   0.00000  -0.01213  -0.01214  -1.26937
   D12        2.92860   0.00001   0.00000  -0.01238  -0.01238   2.91623
   D13       -1.08259  -0.00002   0.00000  -0.01211  -0.01210  -1.09469
   D14        3.01082  -0.00010   0.00000  -0.01164  -0.01164   2.99919
   D15        0.91348   0.00002   0.00000  -0.01189  -0.01188   0.90160
   D16        3.01301  -0.00001   0.00000  -0.00154  -0.00154   3.01148
   D17        0.10668  -0.00004   0.00000  -0.00148  -0.00148   0.10520
   D18       -0.56354  -0.00001   0.00000   0.00130   0.00130  -0.56224
   D19        2.81331  -0.00004   0.00000   0.00135   0.00135   2.81467
   D20       -2.90579  -0.00008   0.00000  -0.00247  -0.00247  -2.90826
   D21        0.00245  -0.00005   0.00000  -0.00253  -0.00253  -0.00008
   D22       -0.00117  -0.00002   0.00000   0.00284   0.00284   0.00167
   D23        2.90707   0.00001   0.00000   0.00278   0.00278   2.90985
   D24       -1.02189  -0.00003   0.00000   0.00077   0.00078  -1.02111
   D25       -3.01140  -0.00005   0.00000  -0.00040  -0.00040  -3.01180
   D26        0.56197  -0.00006   0.00000   0.00113   0.00113   0.56309
   D27        1.88045   0.00008   0.00000   0.00664   0.00664   1.88709
   D28       -0.10907   0.00006   0.00000   0.00547   0.00547  -0.10360
   D29       -2.81889   0.00005   0.00000   0.00700   0.00699  -2.81189
         Item               Value     Threshold  Converged?
 Maximum Force            0.000311     0.000450     YES
 RMS     Force            0.000107     0.000300     YES
 Maximum Displacement     0.024186     0.001800     NO 
 RMS     Displacement     0.007283     0.001200     NO 
 Predicted change in Energy=-5.463993D-06
 GradGradGradGradGradGradGradGradGradGradGradGradGradGradGradGradGradGrad

                          Input orientation:                          
 ---------------------------------------------------------------------
 Center     Atomic      Atomic             Coordinates (Angstroms)
 Number     Number       Type             X           Y           Z
 ---------------------------------------------------------------------
      1          1           0        0.835988   -1.842933   -1.250345
      2          6           0        1.071765   -1.140815   -0.447439
      3          1           0        1.396265   -1.593613    0.490261
      4          6           0        1.434940    0.161828   -0.751424
      5          1           0        2.048833    0.734739   -0.055360
      6          1           0        1.482482    0.484972   -1.793863
      7          1           0       -1.269711   -2.204598    0.527711
      8          6           0       -1.094458   -1.165306    0.236995
      9          1           0        0.059852    2.535654   -0.561736
     10          6           0       -0.726698    1.157186    0.889245
     11          1           0       -1.179978   -0.447143    2.249472
     12          6           0       -1.098764   -0.166555    1.194106
     13          1           0       -0.536542    1.842368    1.722010
     14          6           0       -0.338192    1.532966   -0.384087
     15          1           0       -0.766370    1.046947   -1.260915
     16          1           0       -1.319409   -0.935697   -0.804631
 ---------------------------------------------------------------------
                    Distance matrix (angstroms):
                    1          2          3          4          5
     1  H    0.000000
     2  C    1.092346   0.000000
     3  H    1.845476   1.090691   0.000000
     4  C    2.150984   1.386067   2.150547   0.000000
     5  H    3.089235   2.150834   2.478864   1.090686   0.000000
     6  H    2.476390   2.150518   3.089526   1.092410   1.845408
     7  H    2.779614   2.750466   2.735349   3.814616   4.471287
     8  C    2.529423   2.271909   2.539939   3.022600   3.684551
     9  H    4.499844   3.814899   4.465819   2.749891   2.730523
    10  C    4.002568   3.209672   3.497577   2.890538   2.962146
    11  H    4.273298   3.581181   3.323589   4.026664   4.139362
    12  C    3.539611   2.890509   2.959232   3.211320   3.504406
    13  H    4.929521   4.023995   4.130243   3.581736   3.327169
    14  C    3.677744   3.023424   3.680804   2.271333   2.538329
    15  H    3.304402   2.970990   3.836165   2.426681   3.078344
    16  H    2.380646   2.426390   3.079689   2.965439   3.833643
                    6          7          8          9         10
     6  H    0.000000
     7  H    4.494225   0.000000
     8  C    3.672659   1.093324   0.000000
     9  H    2.783400   5.042283   3.958220   0.000000
    10  C    3.539974   3.424494   2.440214   2.150391   0.000000
    11  H    4.930121   2.461943   2.138489   4.282189   2.151639
    12  C    4.001909   2.151028   1.383323   3.424515   1.408426
    13  H    4.275553   4.282735   3.400388   2.460046   1.095049
    14  C    2.529944   3.958344   2.870253   1.093334   1.383301
    15  H    2.378484   3.745007   2.691735   1.840582   2.153349
    16  H    3.293550   1.840574   1.090095   3.743212   2.756933
                   11         12         13         14         15
    11  H    0.000000
    12  C    1.095045   0.000000
    13  H    2.435997   2.151871   0.000000
    14  C    3.400745   2.440806   2.137924   0.000000
    15  H    3.837472   2.758659   3.095700   1.090128   0.000000
    16  H    3.096073   2.152954   3.835940   2.689599   2.108299
                   16
    16  H    0.000000
 Stoichiometry    C6H10
 Framework group  C1[X(C6H10)]
 Deg. of freedom    42
 Full point group                 C1      NOp   1
 Largest Abelian subgroup         C1      NOp   1
 Largest concise Abelian subgroup C1      NOp   1
                         Standard orientation:                         
 ---------------------------------------------------------------------
 Center     Atomic      Atomic             Coordinates (Angstroms)
 Number     Number       Type             X           Y           Z
 ---------------------------------------------------------------------
      1          1           0       -2.072360   -1.242413    0.569322
      2          6           0       -1.571727   -0.694175   -0.231941
      3          1           0       -1.457051   -1.237744   -1.170551
      4          6           0       -1.573328    0.691887   -0.228290
      5          1           0       -1.463778    1.241102   -1.164216
      6          1           0       -2.073448    1.233963    0.577559
      7          1           0        0.389192   -2.520681    0.387523
      8          6           0        0.448723   -1.434479    0.496965
      9          1           0        0.386489    2.521599    0.382586
     10          6           0        1.316431    0.704633   -0.294190
     11          1           0        1.865502   -1.217498   -1.090105
     12          6           0        1.318124   -0.703791   -0.292856
     13          1           0        1.862535    1.218497   -1.092216
     14          6           0        0.447090    1.435774    0.495242
     15          1           0        0.125952    1.056190    1.465379
     16          1           0        0.125087   -1.052108    1.465139
 ---------------------------------------------------------------------
 Rotational constants (GHZ):      4.3300024      3.4680731      2.2644169
 Standard basis: def2SVP (5D, 7F)
 There are   140 symmetry adapted cartesian basis functions of A   symmetry.
 There are   134 symmetry adapted basis functions of A   symmetry.
   134 basis functions,   220 primitive gaussians,   140 cartesian basis functions
    23 alpha electrons       23 beta electrons
       nuclear repulsion energy       223.8849906681 Hartrees.
 NAtoms=   16 NActive=   16 NUniq=   16 SFac= 1.00D+00 NAtFMM=   60 NAOKFM=F Big=F
 Integral buffers will be    131072 words long.
 Raffenetti 2 integral format.
 Two-electron integral symmetry is turned on.
 Nuclear repulsion after empirical dispersion term =      223.8595601587 Hartrees.
 One-electron integrals computed using PRISM.
   1 Symmetry operations used in ECPInt.
 ECPInt:  NShTT=    2211 NPrTT=    7611 LenC2=    2208 LenP2D=    6478.
 LDataN:  DoStor=T MaxTD1= 4 Len=   56
 NBasis=   134 RedAO= T EigKep=  9.86D-04  NBF=   134
 NBsUse=   134 1.00D-06 EigRej= -1.00D+00 NBFU=   134
 Initial guess from the checkpoint file:  "/tmp/Gau-3243550.chk"
 B after Tr=     0.000000    0.000000    0.000000
         Rot=    0.999998   -0.000104    0.000019   -0.002086 Ang=  -0.24 deg.
 ExpMin= 1.22D-01 ExpMax= 1.24D+03 ExpMxC= 1.86D+02 IAcc=1 IRadAn=         1 AccDes= 0.00D+00
 Harris functional with IExCor=  402 and IRadAn=       1 diagonalized for initial guess.
 HarFok:  IExCor=  402 AccDes= 0.00D+00 IRadAn=         1 IDoV= 1 UseB2=F ITyADJ=14
 ICtDFT=  3500011 ScaDFX=  1.000000  1.000000  1.000000  1.000000
 FoFCou: FMM=F IPFlag=           0 FMFlag=      100000 FMFlg1=           0
         NFxFlg=           0 DoJE=T BraDBF=F KetDBF=T FulRan=T
         wScrn=  0.000000 ICntrl=     500 IOpCl=  0 I1Cent=   200000004 NGrid=           0
         NMat0=    1 NMatS0=      1 NMatT0=    0 NMatD0=    1 NMtDS0=    0 NMtDT0=    0
 Petite list used in FoFCou.
 Keep R1 ints in memory in canonical form, NReq=42392737.
 Requested convergence on RMS density matrix=1.00D-08 within 128 cycles.
 Requested convergence on MAX density matrix=1.00D-06.
 Requested convergence on             energy=1.00D-06.
 No special actions if energy rises.
 Integral accuracy reduced to 1.0D-05 until final iterations.
 Initial convergence to 1.0D-05 achieved.  Increase integral accuracy.
 SCF Done:  E(RB3LYP) =  -234.401785305     A.U. after   10 cycles
            NFock= 10  Conv=0.39D-08     -V/T= 2.0131
   1 Symmetry operations used in ECPInt.
 ECPInt:  NShTT=    2211 NPrTT=    7611 LenC2=    2208 LenP2D=    6478.
 LDataN:  DoStor=T MaxTD1= 5 Len=  102
 Calling FoFJK, ICntrl=      2127 FMM=F ISym2X=0 I1Cent= 0 IOpClX= 0 NMat=1 NMatS=1 NMatT=0.
 ***** Axes restored to original set *****
 -------------------------------------------------------------------
 Center     Atomic                   Forces (Hartrees/Bohr)
 Number     Number              X              Y              Z
 -------------------------------------------------------------------
      1        1          -0.000044305    0.000006942   -0.000005612
      2        6          -0.000020839    0.000100685    0.000038055
      3        1           0.000041414   -0.000006728   -0.000006715
      4        6           0.000033528   -0.000077557   -0.000089234
      5        1          -0.000041616   -0.000016843    0.000045290
      6        1           0.000041837    0.000008313    0.000013995
      7        1          -0.000010040   -0.000000461    0.000005718
      8        6           0.000001171   -0.000017366   -0.000023223
      9        1           0.000001462   -0.000007796   -0.000050674
     10        6          -0.000088209    0.000168854   -0.000004777
     11        1          -0.000006232    0.000002726   -0.000001253
     12        6           0.000077632   -0.000076856    0.000000645
     13        1           0.000005379   -0.000055583    0.000050854
     14        6           0.000019223    0.000018131   -0.000005294
     15        1           0.000005934   -0.000048042    0.000032766
     16        1          -0.000016339    0.000001581   -0.000000542
 -------------------------------------------------------------------
 Cartesian Forces:  Max     0.000168854 RMS     0.000045432

 GradGradGradGradGradGradGradGradGradGradGradGradGradGradGradGradGradGrad
 Berny optimization.
 FormGI is forming the generalized inverse of G from B-inverse, IUseBI=4.
 Internal  Forces:  Max     0.000122144 RMS     0.000035418
 Search for a saddle point.
 Step number   6 out of a maximum of   78
 All quantities printed in internal units (Hartrees-Bohrs-Radians)
 Swapping is turned off.
 Update second derivatives using D2CorX and points    2    3    4    5    6
 ITU=  0  0  0  0  0  0
     Eigenvalues ---   -0.12519   0.00261   0.01028   0.01531   0.01618
     Eigenvalues ---    0.01858   0.02886   0.03556   0.03793   0.03971
     Eigenvalues ---    0.04018   0.04714   0.05327   0.05899   0.07388
     Eigenvalues ---    0.07855   0.09778   0.10292   0.11033   0.11378
     Eigenvalues ---    0.12202   0.13637   0.14070   0.16209   0.19119
     Eigenvalues ---    0.25945   0.30508   0.34555   0.34701   0.34945
     Eigenvalues ---    0.35388   0.35595   0.35742   0.35821   0.35979
     Eigenvalues ---    0.36109   0.36980   0.43314   0.47083   0.54736
     Eigenvalues ---    0.70080   0.81855
 Eigenvectors required to have negative eigenvalues:
                          R6        D18       D5        R3        D1
   1                   -0.52355  -0.29669  -0.23917   0.23402   0.23097
                          D19       R8        D3        D24       R11
   1                   -0.21832   0.19716   0.18642   0.15898  -0.15156
 RFO step:  Lambda0=8.293876266D-09 Lambda=-1.33678957D-06.
 Linear search not attempted -- option 19 set.
 Iteration  1 RMS(Cart)=  0.00226779 RMS(Int)=  0.00000240
 Iteration  2 RMS(Cart)=  0.00000379 RMS(Int)=  0.00000016
 Iteration  3 RMS(Cart)=  0.00000000 RMS(Int)=  0.00000016
 Variable       Old X    -DE/DX   Delta X   Delta X   Delta X     New X
                                 (Linear)    (Quad)   (Total)
    R1        2.06424   0.00001   0.00000   0.00005   0.00005   2.06428
    R2        2.06111   0.00001   0.00000   0.00002   0.00002   2.06112
    R3        2.61929  -0.00008   0.00000  -0.00009  -0.00009   2.61920
    R4        2.06110   0.00000   0.00000   0.00002   0.00002   2.06112
    R5        2.06436  -0.00001   0.00000  -0.00007  -0.00007   2.06429
    R6        4.29220   0.00000   0.00000   0.00054   0.00054   4.29274
    R7        2.06608   0.00000   0.00000   0.00001   0.00001   2.06609
    R8        2.61410   0.00002   0.00000  -0.00001  -0.00001   2.61409
    R9        2.05998   0.00000   0.00000   0.00002   0.00002   2.06000
   R10        2.06610   0.00000   0.00000  -0.00001  -0.00001   2.06610
   R11        2.66154   0.00007   0.00000   0.00018   0.00018   2.66172
   R12        2.06934   0.00000   0.00000   0.00000   0.00000   2.06934
   R13        2.61406   0.00003   0.00000   0.00007   0.00007   2.61413
   R14        2.06933   0.00000   0.00000   0.00000   0.00000   2.06934
   R15        2.06004  -0.00001   0.00000  -0.00002  -0.00002   2.06003
    A1        2.01452   0.00001   0.00000  -0.00004  -0.00004   2.01448
    A2        2.09373   0.00001   0.00000  -0.00015  -0.00015   2.09359
    A3        2.09527  -0.00002   0.00000  -0.00015  -0.00015   2.09512
    A4        2.09575  -0.00002   0.00000  -0.00050  -0.00050   2.09525
    A5        2.09288   0.00003   0.00000   0.00059   0.00059   2.09348
    A6        1.90426  -0.00011   0.00000  -0.00054  -0.00054   1.90372
    A7        2.01431   0.00000   0.00000   0.00021   0.00021   2.01453
    A8        1.58988   0.00004   0.00000   0.00071   0.00071   1.59059
    A9        1.58053   0.00004   0.00000  -0.00083  -0.00083   1.57970
   A10        2.09652  -0.00001   0.00000  -0.00011  -0.00011   2.09641
   A11        2.00559   0.00000   0.00000  -0.00004  -0.00004   2.00554
   A12        2.10414   0.00000   0.00000  -0.00011  -0.00011   2.10403
   A13        2.05935  -0.00001   0.00000  -0.00055  -0.00055   2.05880
   A14        2.12794  -0.00012   0.00000  -0.00049  -0.00050   2.12744
   A15        2.07291   0.00012   0.00000   0.00075   0.00075   2.07365
   A16        2.12704   0.00002   0.00000   0.00022   0.00022   2.12725
   A17        2.07379  -0.00001   0.00000   0.00002   0.00002   2.07382
   A18        2.05899  -0.00001   0.00000  -0.00009  -0.00009   2.05890
   A19        1.81639   0.00001   0.00000  -0.00007  -0.00007   1.81632
   A20        1.77637  -0.00005   0.00000  -0.00027  -0.00027   1.77610
   A21        1.47807   0.00000   0.00000  -0.00010  -0.00010   1.47796
   A22        2.09549   0.00005   0.00000   0.00068   0.00068   2.09617
   A23        2.00554   0.00000   0.00000  -0.00004  -0.00004   2.00551
   A24        2.10478  -0.00004   0.00000  -0.00050  -0.00050   2.10427
    D1       -2.70038  -0.00005   0.00000  -0.00261  -0.00261  -2.70299
    D2        0.00255  -0.00001   0.00000  -0.00177  -0.00177   0.00077
    D3        1.78613  -0.00002   0.00000  -0.00288  -0.00288   1.78324
    D4        0.00409  -0.00005   0.00000  -0.00349  -0.00349   0.00060
    D5        2.70702  -0.00001   0.00000  -0.00266  -0.00266   2.70436
    D6       -1.79259  -0.00001   0.00000  -0.00377  -0.00377  -1.79635
    D7        3.05773   0.00000   0.00000   0.00417   0.00417   3.06190
    D8        0.86842  -0.00004   0.00000   0.00357   0.00357   0.87199
    D9       -1.22917   0.00000   0.00000   0.00411   0.00411  -1.22506
   D10        0.91994   0.00003   0.00000   0.00455   0.00455   0.92449
   D11       -1.26937  -0.00001   0.00000   0.00395   0.00395  -1.26542
   D12        2.91623   0.00003   0.00000   0.00449   0.00449   2.92072
   D13       -1.09469   0.00003   0.00000   0.00435   0.00435  -1.09034
   D14        2.99919  -0.00001   0.00000   0.00375   0.00375   3.00294
   D15        0.90160   0.00003   0.00000   0.00429   0.00429   0.90588
   D16        3.01148   0.00002   0.00000   0.00051   0.00051   3.01198
   D17        0.10520   0.00000   0.00000  -0.00021  -0.00021   0.10499
   D18       -0.56224   0.00000   0.00000  -0.00020  -0.00020  -0.56245
   D19        2.81467  -0.00002   0.00000  -0.00092  -0.00092   2.81375
   D20       -2.90826  -0.00002   0.00000   0.00005   0.00005  -2.90822
   D21       -0.00008   0.00001   0.00000   0.00078   0.00078   0.00069
   D22        0.00167  -0.00004   0.00000  -0.00136  -0.00136   0.00031
   D23        2.90985  -0.00002   0.00000  -0.00063  -0.00063   2.90922
   D24       -1.02111   0.00004   0.00000   0.00024   0.00024  -1.02087
   D25       -3.01180   0.00003   0.00000   0.00020   0.00020  -3.01160
   D26        0.56309  -0.00001   0.00000  -0.00015  -0.00015   0.56294
   D27        1.88709  -0.00001   0.00000  -0.00134  -0.00134   1.88575
   D28       -0.10360  -0.00001   0.00000  -0.00138  -0.00138  -0.10498
   D29       -2.81189  -0.00005   0.00000  -0.00174  -0.00174  -2.81363
         Item               Value     Threshold  Converged?
 Maximum Force            0.000122     0.000450     YES
 RMS     Force            0.000035     0.000300     YES
 Maximum Displacement     0.007604     0.001800     NO 
 RMS     Displacement     0.002268     0.001200     NO 
 Predicted change in Energy=-6.642559D-07
 GradGradGradGradGradGradGradGradGradGradGradGradGradGradGradGradGradGrad

                          Input orientation:                          
 ---------------------------------------------------------------------
 Center     Atomic      Atomic             Coordinates (Angstroms)
 Number     Number       Type             X           Y           Z
 ---------------------------------------------------------------------
      1          1           0        0.834355   -1.840929   -1.253294
      2          6           0        1.070991   -1.140896   -0.448786
      3          1           0        1.395857   -1.596214    0.487575
      4          6           0        1.435585    0.161944   -0.750013
      5          1           0        2.048186    0.733070   -0.051336
      6          1           0        1.485161    0.487380   -1.791604
      7          1           0       -1.268687   -2.204459    0.529251
      8          6           0       -1.093953   -1.165289    0.237771
      9          1           0        0.058706    2.535278   -0.564358
     10          6           0       -0.727194    1.157962    0.888723
     11          1           0       -1.178700   -0.446078    2.249919
     12          6           0       -1.098021   -0.166047    1.194364
     13          1           0       -0.536856    1.843090    1.721491
     14          6           0       -0.338716    1.532656   -0.384979
     15          1           0       -0.766432    1.044829   -1.261018
     16          1           0       -1.320279   -0.936297   -0.803704
 ---------------------------------------------------------------------
                    Distance matrix (angstroms):
                    1          2          3          4          5
     1  H    0.000000
     2  C    1.092372   0.000000
     3  H    1.845480   1.090699   0.000000
     4  C    2.150876   1.386022   2.150423   0.000000
     5  H    3.089266   2.150494   2.478209   1.090695   0.000000
     6  H    2.476762   2.150809   3.089336   1.092373   1.845507
     7  H    2.780721   2.749876   2.733403   3.814376   4.468535
     8  C    2.529454   2.271330   2.539145   3.022553   3.682444
     9  H    4.497494   3.814752   4.468082   2.750087   2.732979
    10  C    4.002501   3.210474   3.500536   2.890522   2.960908
    11  H    4.274401   3.581465   3.325209   4.025391   4.135089
    12  C    3.539821   2.890482   2.960465   3.210504   3.501256
    13  H    4.929662   4.024854   4.133611   3.581216   3.325282
    14  C    3.675751   3.023115   3.682380   2.271618   2.539283
    15  H    3.300027   2.968709   3.835124   2.426827   3.079383
    16  H    2.379692   2.426107   3.079007   2.967120   3.833980
                    6          7          8          9         10
     6  H    0.000000
     7  H    4.496226   0.000000
     8  C    3.674440   1.093328   0.000000
     9  H    2.781150   5.042128   3.958059   0.000000
    10  C    3.539541   3.424662   2.440439   2.150833   0.000000
    11  H    4.929646   2.461849   2.138501   4.282501   2.151664
    12  C    4.001975   2.150959   1.383319   3.424657   1.408519
    13  H    4.274148   4.282484   3.400313   2.461488   1.095050
    14  C    2.529372   3.958117   2.870036   1.093330   1.383339
    15  H    2.379484   3.743687   2.690401   1.840551   2.153073
    16  H    3.297468   1.840561   1.090106   3.743090   2.757168
                   11         12         13         14         15
    11  H    0.000000
    12  C    1.095045   0.000000
    13  H    2.435466   2.151604   0.000000
    14  C    3.400537   2.440586   2.138421   0.000000
    15  H    3.836593   2.757729   3.096011   1.090120   0.000000
    16  H    3.095961   2.152896   3.836060   2.689708   2.107307
                   16
    16  H    0.000000
 Stoichiometry    C6H10
 Framework group  C1[X(C6H10)]
 Deg. of freedom    42
 Full point group                 C1      NOp   1
 Largest Abelian subgroup         C1      NOp   1
 Largest concise Abelian subgroup C1      NOp   1
                         Standard orientation:                         
 ---------------------------------------------------------------------
 Center     Atomic      Atomic             Coordinates (Angstroms)
 Number     Number       Type             X           Y           Z
 ---------------------------------------------------------------------
      1          1           0       -2.073512   -1.237919    0.572816
      2          6           0       -1.572727   -0.692480   -0.230294
      3          1           0       -1.460564   -1.238321   -1.167899
      4          6           0       -1.572206    0.693541   -0.229941
      5          1           0       -1.460205    1.239889   -1.167266
      6          1           0       -2.071994    1.238842    0.573886
      7          1           0        0.386353   -2.521119    0.386071
      8          6           0        0.447087   -1.435054    0.496259
      9          1           0        0.388726    2.521009    0.384946
     10          6           0        1.317597    0.703644   -0.293631
     11          1           0        1.863700   -1.218731   -1.091065
     12          6           0        1.317039   -0.704875   -0.293420
     13          1           0        1.864141    1.216734   -1.091854
     14          6           0        0.448559    1.434982    0.496019
     15          1           0        0.126447    1.054186    1.465348
     16          1           0        0.124820   -1.053120    1.465073
 ---------------------------------------------------------------------
 Rotational constants (GHZ):      4.3303062      3.4681519      2.2645986
 Standard basis: def2SVP (5D, 7F)
 There are   140 symmetry adapted cartesian basis functions of A   symmetry.
 There are   134 symmetry adapted basis functions of A   symmetry.
   134 basis functions,   220 primitive gaussians,   140 cartesian basis functions
    23 alpha electrons       23 beta electrons
       nuclear repulsion energy       223.8889354964 Hartrees.
 NAtoms=   16 NActive=   16 NUniq=   16 SFac= 1.00D+00 NAtFMM=   60 NAOKFM=F Big=F
 Integral buffers will be    131072 words long.
 Raffenetti 2 integral format.
 Two-electron integral symmetry is turned on.
 Nuclear repulsion after empirical dispersion term =      223.8635039600 Hartrees.
 One-electron integrals computed using PRISM.
   1 Symmetry operations used in ECPInt.
 ECPInt:  NShTT=    2211 NPrTT=    7611 LenC2=    2208 LenP2D=    6478.
 LDataN:  DoStor=T MaxTD1= 4 Len=   56
 NBasis=   134 RedAO= T EigKep=  9.86D-04  NBF=   134
 NBsUse=   134 1.00D-06 EigRej= -1.00D+00 NBFU=   134
 Initial guess from the checkpoint file:  "/tmp/Gau-3243550.chk"
 B after Tr=     0.000000    0.000000    0.000000
         Rot=    1.000000    0.000012    0.000004    0.000560 Ang=   0.06 deg.
 Keep R1 ints in memory in canonical form, NReq=42392737.
 Requested convergence on RMS density matrix=1.00D-08 within 128 cycles.
 Requested convergence on MAX density matrix=1.00D-06.
 Requested convergence on             energy=1.00D-06.
 No special actions if energy rises.
 SCF Done:  E(RB3LYP) =  -234.401786052     A.U. after    8 cycles
            NFock=  8  Conv=0.29D-08     -V/T= 2.0131
   1 Symmetry operations used in ECPInt.
 ECPInt:  NShTT=    2211 NPrTT=    7611 LenC2=    2208 LenP2D=    6478.
 LDataN:  DoStor=T MaxTD1= 5 Len=  102
 Calling FoFJK, ICntrl=      2127 FMM=F ISym2X=0 I1Cent= 0 IOpClX= 0 NMat=1 NMatS=1 NMatT=0.
 ***** Axes restored to original set *****
 -------------------------------------------------------------------
 Center     Atomic                   Forces (Hartrees/Bohr)
 Number     Number              X              Y              Z
 -------------------------------------------------------------------
      1        1          -0.000016263    0.000001393    0.000001945
      2        6           0.000006532    0.000020456    0.000013379
      3        1           0.000008679   -0.000000408   -0.000002637
      4        6          -0.000005629   -0.000009338   -0.000027425
      5        1          -0.000014329    0.000003021    0.000008132
      6        1           0.000021819    0.000000326   -0.000000687
      7        1          -0.000001938    0.000000255    0.000000233
      8        6          -0.000012159   -0.000011647   -0.000023674
      9        1          -0.000000938   -0.000001240   -0.000010750
     10        6           0.000022495    0.000011484    0.000003459
     11        1           0.000007531   -0.000003721   -0.000001051
     12        6          -0.000004718   -0.000004947    0.000010197
     13        1          -0.000013674    0.000007004   -0.000000852
     14        6           0.000006273    0.000007699    0.000015171
     15        1           0.000003814   -0.000020158    0.000013449
     16        1          -0.000007495   -0.000000180    0.000001109
 -------------------------------------------------------------------
 Cartesian Forces:  Max     0.000027425 RMS     0.000010882

 GradGradGradGradGradGradGradGradGradGradGradGradGradGradGradGradGradGrad
 Berny optimization.
 FormGI is forming the generalized inverse of G from B-inverse, IUseBI=4.
 Internal  Forces:  Max     0.000031579 RMS     0.000011681
 Search for a saddle point.
 Step number   7 out of a maximum of   78
 All quantities printed in internal units (Hartrees-Bohrs-Radians)
 Swapping is turned off.
 Update second derivatives using D2CorX and points    2    3    4    5    6
                                                      7
 ITU=  0  0  0  0  0  0  0
     Eigenvalues ---   -0.12548   0.00252   0.01076   0.01555   0.01645
     Eigenvalues ---    0.01854   0.02899   0.03552   0.03752   0.03964
     Eigenvalues ---    0.04000   0.04713   0.05289   0.05899   0.07383
     Eigenvalues ---    0.07849   0.09771   0.10291   0.11033   0.11382
     Eigenvalues ---    0.12216   0.13636   0.14071   0.16162   0.19108
     Eigenvalues ---    0.25967   0.30498   0.34555   0.34701   0.34945
     Eigenvalues ---    0.35388   0.35595   0.35742   0.35821   0.35978
     Eigenvalues ---    0.36109   0.36980   0.43307   0.47077   0.54696
     Eigenvalues ---    0.70081   0.81848
 Eigenvectors required to have negative eigenvalues:
                          R6        D18       D5        R3        D1
   1                   -0.52384  -0.29634  -0.24019   0.23343   0.22924
                          D19       R8        D3        D24       R11
   1                   -0.21861   0.19706   0.18578   0.15999  -0.15098
 RFO step:  Lambda0=5.316636020D-12 Lambda=-1.22508017D-07.
 Linear search not attempted -- option 19 set.
 Iteration  1 RMS(Cart)=  0.00068127 RMS(Int)=  0.00000021
 Iteration  2 RMS(Cart)=  0.00000029 RMS(Int)=  0.00000001
 Variable       Old X    -DE/DX   Delta X   Delta X   Delta X     New X
                                 (Linear)    (Quad)   (Total)
    R1        2.06428   0.00000   0.00000   0.00000   0.00000   2.06429
    R2        2.06112   0.00000   0.00000  -0.00001  -0.00001   2.06111
    R3        2.61920  -0.00002   0.00000   0.00002   0.00002   2.61922
    R4        2.06112   0.00000   0.00000   0.00001   0.00001   2.06113
    R5        2.06429   0.00000   0.00000   0.00000   0.00000   2.06429
    R6        4.29274  -0.00001   0.00000  -0.00063  -0.00063   4.29211
    R7        2.06609   0.00000   0.00000   0.00000   0.00000   2.06609
    R8        2.61409   0.00002   0.00000   0.00003   0.00003   2.61412
    R9        2.06000   0.00000   0.00000   0.00000   0.00000   2.06000
   R10        2.06610   0.00000   0.00000   0.00000   0.00000   2.06609
   R11        2.66172   0.00002   0.00000   0.00003   0.00003   2.66174
   R12        2.06934   0.00000   0.00000  -0.00001  -0.00001   2.06934
   R13        2.61413  -0.00001   0.00000   0.00002   0.00002   2.61415
   R14        2.06934   0.00000   0.00000   0.00000   0.00000   2.06934
   R15        2.06003   0.00000   0.00000  -0.00001  -0.00001   2.06002
    A1        2.01448   0.00000   0.00000   0.00002   0.00002   2.01449
    A2        2.09359   0.00001   0.00000   0.00005   0.00005   2.09364
    A3        2.09512  -0.00001   0.00000   0.00001   0.00001   2.09513
    A4        2.09525   0.00000   0.00000  -0.00018  -0.00018   2.09507
    A5        2.09348   0.00001   0.00000   0.00015   0.00015   2.09363
    A6        1.90372  -0.00003   0.00000  -0.00017  -0.00017   1.90355
    A7        2.01453   0.00000   0.00000  -0.00003  -0.00003   2.01449
    A8        1.59059   0.00000   0.00000   0.00023   0.00023   1.59082
    A9        1.57970   0.00002   0.00000   0.00009   0.00009   1.57979
   A10        2.09641   0.00000   0.00000   0.00000   0.00000   2.09640
   A11        2.00554   0.00000   0.00000   0.00000   0.00000   2.00555
   A12        2.10403   0.00000   0.00000   0.00002   0.00002   2.10405
   A13        2.05880   0.00002   0.00000   0.00019   0.00019   2.05899
   A14        2.12744  -0.00003   0.00000  -0.00019  -0.00019   2.12725
   A15        2.07365   0.00001   0.00000   0.00009   0.00009   2.07374
   A16        2.12725   0.00000   0.00000  -0.00002  -0.00002   2.12723
   A17        2.07382   0.00000   0.00000  -0.00003  -0.00003   2.07379
   A18        2.05890   0.00000   0.00000   0.00005   0.00005   2.05894
   A19        1.81632  -0.00001   0.00000   0.00007   0.00007   1.81639
   A20        1.77610   0.00000   0.00000   0.00009   0.00009   1.77619
   A21        1.47796   0.00000   0.00000  -0.00008  -0.00008   1.47788
   A22        2.09617   0.00002   0.00000   0.00025   0.00025   2.09642
   A23        2.00551   0.00000   0.00000  -0.00001  -0.00001   2.00550
   A24        2.10427  -0.00002   0.00000  -0.00030  -0.00030   2.10397
    D1       -2.70299  -0.00002   0.00000  -0.00075  -0.00075  -2.70373
    D2        0.00077  -0.00001   0.00000  -0.00091  -0.00091  -0.00014
    D3        1.78324   0.00000   0.00000  -0.00084  -0.00084   1.78241
    D4        0.00060  -0.00001   0.00000  -0.00053  -0.00053   0.00007
    D5        2.70436  -0.00001   0.00000  -0.00070  -0.00070   2.70366
    D6       -1.79635   0.00000   0.00000  -0.00062  -0.00062  -1.79698
    D7        3.06190  -0.00001   0.00000   0.00140   0.00140   3.06330
    D8        0.87199  -0.00002   0.00000   0.00105   0.00105   0.87304
    D9       -1.22506   0.00000   0.00000   0.00137   0.00137  -1.22368
   D10        0.92449   0.00000   0.00000   0.00154   0.00154   0.92603
   D11       -1.26542  -0.00001   0.00000   0.00119   0.00119  -1.26423
   D12        2.92072   0.00001   0.00000   0.00151   0.00151   2.92223
   D13       -1.09034   0.00001   0.00000   0.00156   0.00156  -1.08878
   D14        3.00294  -0.00001   0.00000   0.00121   0.00121   3.00415
   D15        0.90588   0.00001   0.00000   0.00154   0.00154   0.90742
   D16        3.01198   0.00001   0.00000  -0.00006  -0.00006   3.01192
   D17        0.10499   0.00000   0.00000  -0.00005  -0.00005   0.10494
   D18       -0.56245   0.00000   0.00000  -0.00002  -0.00002  -0.56247
   D19        2.81375  -0.00001   0.00000  -0.00001  -0.00001   2.81374
   D20       -2.90822  -0.00003   0.00000  -0.00072  -0.00072  -2.90893
   D21        0.00069  -0.00002   0.00000  -0.00074  -0.00074  -0.00005
   D22        0.00031  -0.00002   0.00000  -0.00027  -0.00027   0.00004
   D23        2.90922  -0.00001   0.00000  -0.00030  -0.00030   2.90892
   D24       -1.02087  -0.00002   0.00000  -0.00032  -0.00032  -1.02119
   D25       -3.01160  -0.00001   0.00000  -0.00059  -0.00059  -3.01219
   D26        0.56294  -0.00002   0.00000  -0.00043  -0.00043   0.56251
   D27        1.88575  -0.00001   0.00000   0.00014   0.00014   1.88589
   D28       -0.10498   0.00000   0.00000  -0.00013  -0.00013  -0.10512
   D29       -2.81363  -0.00001   0.00000   0.00003   0.00003  -2.81360
         Item               Value     Threshold  Converged?
 Maximum Force            0.000032     0.000450     YES
 RMS     Force            0.000012     0.000300     YES
 Maximum Displacement     0.002040     0.001800     NO 
 RMS     Displacement     0.000681     0.001200     YES
 Predicted change in Energy=-6.125136D-08
 GradGradGradGradGradGradGradGradGradGradGradGradGradGradGradGradGradGrad

                          Input orientation:                          
 ---------------------------------------------------------------------
 Center     Atomic      Atomic             Coordinates (Angstroms)
 Number     Number       Type             X           Y           Z
 ---------------------------------------------------------------------
      1          1           0        0.834005   -1.840303   -1.254122
      2          6           0        1.070943   -1.140796   -0.449243
      3          1           0        1.395688   -1.596725    0.486856
      4          6           0        1.435781    0.162162   -0.749701
      5          1           0        2.048051    0.732791   -0.050319
      6          1           0        1.486130    0.488161   -1.791080
      7          1           0       -1.268793   -2.204399    0.529568
      8          6           0       -1.094137   -1.165246    0.237985
      9          1           0        0.058335    2.534972   -0.565225
     10          6           0       -0.727058    1.158027    0.888717
     11          1           0       -1.178285   -0.445967    2.250129
     12          6           0       -1.097888   -0.165953    1.194547
     13          1           0       -0.537073    1.843533    1.721250
     14          6           0       -0.338635    1.532301   -0.385136
     15          1           0       -0.766315    1.043749   -1.260785
     16          1           0       -1.320747   -0.936306   -0.803439
 ---------------------------------------------------------------------
                    Distance matrix (angstroms):
                    1          2          3          4          5
     1  H    0.000000
     2  C    1.092373   0.000000
     3  H    1.845487   1.090694   0.000000
     4  C    2.150916   1.386030   2.150434   0.000000
     5  H    3.089315   2.150397   2.478060   1.090701   0.000000
     6  H    2.476961   2.150908   3.089324   1.092373   1.845494
     7  H    2.781343   2.750216   2.733231   3.814690   4.468199
     8  C    2.529785   2.271663   2.539162   3.022916   3.682256
     9  H    4.496584   3.814459   4.468368   2.749840   2.733487
    10  C    4.002331   3.210534   3.500886   2.890334   2.960378
    11  H    4.274722   3.581679   3.325464   4.025189   4.134099
    12  C    3.540005   2.890708   2.960719   3.210489   3.500623
    13  H    4.929841   4.025292   4.134570   3.581168   3.324916
    14  C    3.674871   3.022659   3.682262   2.271287   2.539210
    15  H    3.298306   2.967550   3.834138   2.426444   3.079380
    16  H    2.379765   2.426407   3.078967   2.967822   3.834302
                    6          7          8          9         10
     6  H    0.000000
     7  H    4.497208   0.000000
     8  C    3.675409   1.093327   0.000000
     9  H    2.780423   5.041971   3.957897   0.000000
    10  C    3.539524   3.424671   2.440450   2.150992   0.000000
    11  H    4.929814   2.461829   2.138496   4.282691   2.151707
    12  C    4.002371   2.150968   1.383333   3.424711   1.408534
    13  H    4.273972   4.282671   3.400463   2.461821   1.095045
    14  C    2.529164   3.957878   2.869812   1.093328   1.383349
    15  H    2.379790   3.742768   2.689505   1.840543   2.152895
    16  H    3.298954   1.840561   1.090104   3.742778   2.757188
                   11         12         13         14         15
    11  H    0.000000
    12  C    1.095046   0.000000
    13  H    2.435709   2.151735   0.000000
    14  C    3.400467   2.440477   2.138482   0.000000
    15  H    3.836077   2.757167   3.095923   1.090116   0.000000
    16  H    3.095965   2.152918   3.836105   2.689524   2.106461
                   16
    16  H    0.000000
 Stoichiometry    C6H10
 Framework group  C1[X(C6H10)]
 Deg. of freedom    42
 Full point group                 C1      NOp   1
 Largest Abelian subgroup         C1      NOp   1
 Largest concise Abelian subgroup C1      NOp   1
                         Standard orientation:                         
 ---------------------------------------------------------------------
 Center     Atomic      Atomic             Coordinates (Angstroms)
 Number     Number       Type             X           Y           Z
 ---------------------------------------------------------------------
      1          1           0       -2.072611   -1.238795    0.573519
      2          6           0       -1.572393   -0.693419   -0.229990
      3          1           0       -1.460071   -1.239639   -1.167348
      4          6           0       -1.572581    0.692611   -0.230271
      5          1           0       -1.460465    1.238420   -1.167901
      6          1           0       -2.073062    1.238166    0.572953
      7          1           0        0.388422   -2.520944    0.385677
      8          6           0        0.448377   -1.434861    0.496100
      9          1           0        0.386638    2.521027    0.386154
     10          6           0        1.317035    0.704683   -0.293569
     11          1           0        1.864452   -1.217158   -1.091509
     12          6           0        1.317595   -0.703851   -0.293643
     13          1           0        1.863510    1.218551   -1.091334
     14          6           0        0.447269    1.434950    0.496286
     15          1           0        0.125336    1.053077    1.465246
     16          1           0        0.126035   -1.053384    1.465068
 ---------------------------------------------------------------------
 Rotational constants (GHZ):      4.3305489      3.4680448      2.2646735
 Standard basis: def2SVP (5D, 7F)
 There are   140 symmetry adapted cartesian basis functions of A   symmetry.
 There are   134 symmetry adapted basis functions of A   symmetry.
   134 basis functions,   220 primitive gaussians,   140 cartesian basis functions
    23 alpha electrons       23 beta electrons
       nuclear repulsion energy       223.8901448593 Hartrees.
 NAtoms=   16 NActive=   16 NUniq=   16 SFac= 1.00D+00 NAtFMM=   60 NAOKFM=F Big=F
 Integral buffers will be    131072 words long.
 Raffenetti 2 integral format.
 Two-electron integral symmetry is turned on.
 Nuclear repulsion after empirical dispersion term =      223.8647128789 Hartrees.
 One-electron integrals computed using PRISM.
   1 Symmetry operations used in ECPInt.
 ECPInt:  NShTT=    2211 NPrTT=    7611 LenC2=    2208 LenP2D=    6478.
 LDataN:  DoStor=T MaxTD1= 4 Len=   56
 NBasis=   134 RedAO= T EigKep=  9.86D-04  NBF=   134
 NBsUse=   134 1.00D-06 EigRej= -1.00D+00 NBFU=   134
 Initial guess from the checkpoint file:  "/tmp/Gau-3243550.chk"
 B after Tr=     0.000000    0.000000    0.000000
         Rot=    1.000000   -0.000051    0.000003   -0.000359 Ang=  -0.04 deg.
 Keep R1 ints in memory in canonical form, NReq=42392737.
 Requested convergence on RMS density matrix=1.00D-08 within 128 cycles.
 Requested convergence on MAX density matrix=1.00D-06.
 Requested convergence on             energy=1.00D-06.
 No special actions if energy rises.
 SCF Done:  E(RB3LYP) =  -234.401786105     A.U. after    6 cycles
            NFock=  6  Conv=0.84D-08     -V/T= 2.0131
   1 Symmetry operations used in ECPInt.
 ECPInt:  NShTT=    2211 NPrTT=    7611 LenC2=    2208 LenP2D=    6478.
 LDataN:  DoStor=T MaxTD1= 5 Len=  102
 Calling FoFJK, ICntrl=      2127 FMM=F ISym2X=0 I1Cent= 0 IOpClX= 0 NMat=1 NMatS=1 NMatT=0.
 ***** Axes restored to original set *****
 -------------------------------------------------------------------
 Center     Atomic                   Forces (Hartrees/Bohr)
 Number     Number              X              Y              Z
 -------------------------------------------------------------------
      1        1          -0.000005606    0.000000339   -0.000000439
      2        6           0.000002120    0.000015182    0.000003525
      3        1           0.000002773    0.000000764   -0.000000048
      4        6          -0.000005384   -0.000016135   -0.000000009
      5        1          -0.000005289    0.000003892   -0.000001329
      6        1           0.000004978   -0.000003069   -0.000001225
      7        1          -0.000000212   -0.000000147    0.000000247
      8        6          -0.000001524   -0.000003405   -0.000002438
      9        1           0.000003874   -0.000001009    0.000004837
     10        6           0.000000164    0.000021181   -0.000008480
     11        1          -0.000000178    0.000000905    0.000000249
     12        6           0.000012485   -0.000011058   -0.000001515
     13        1          -0.000000335   -0.000004385    0.000004204
     14        6          -0.000011655   -0.000003969    0.000002777
     15        1           0.000005347    0.000000329    0.000000663
     16        1          -0.000001559    0.000000584   -0.000001020
 -------------------------------------------------------------------
 Cartesian Forces:  Max     0.000021181 RMS     0.000006035

 GradGradGradGradGradGradGradGradGradGradGradGradGradGradGradGradGradGrad
 Berny optimization.
 FormGI is forming the generalized inverse of G from B-inverse, IUseBI=4.
 Internal  Forces:  Max     0.000024059 RMS     0.000006192
 Search for a saddle point.
 Step number   8 out of a maximum of   78
 All quantities printed in internal units (Hartrees-Bohrs-Radians)
 Swapping is turned off.
 Update second derivatives using D2CorX and points    2    3    4    5    6
                                                      7    8
 ITU=  0  0  0  0  0  0  0  0
     Eigenvalues ---   -0.12533   0.00324   0.01082   0.01552   0.01717
     Eigenvalues ---    0.01852   0.02909   0.03550   0.03626   0.03934
     Eigenvalues ---    0.03977   0.04715   0.05209   0.05900   0.07375
     Eigenvalues ---    0.07809   0.09751   0.10291   0.11031   0.11387
     Eigenvalues ---    0.12224   0.13637   0.14070   0.16111   0.19100
     Eigenvalues ---    0.25957   0.30476   0.34555   0.34700   0.34945
     Eigenvalues ---    0.35388   0.35595   0.35740   0.35821   0.35977
     Eigenvalues ---    0.36108   0.36980   0.43289   0.47074   0.54604
     Eigenvalues ---    0.69969   0.81822
 Eigenvectors required to have negative eigenvalues:
                          R6        D18       D5        R3        D1
   1                   -0.52507  -0.29617  -0.24308   0.23380   0.22669
                          D19       R8        D3        D24       R11
   1                   -0.21829   0.19636   0.18149   0.16022  -0.15152
 RFO step:  Lambda0=5.861223867D-10 Lambda=-1.52459818D-08.
 Linear search not attempted -- option 19 set.
 Iteration  1 RMS(Cart)=  0.00017555 RMS(Int)=  0.00000001
 Iteration  2 RMS(Cart)=  0.00000002 RMS(Int)=  0.00000000
 Variable       Old X    -DE/DX   Delta X   Delta X   Delta X     New X
                                 (Linear)    (Quad)   (Total)
    R1        2.06429   0.00000   0.00000   0.00000   0.00000   2.06429
    R2        2.06111   0.00000   0.00000   0.00001   0.00001   2.06112
    R3        2.61922  -0.00001   0.00000  -0.00003  -0.00003   2.61919
    R4        2.06113   0.00000   0.00000  -0.00001  -0.00001   2.06112
    R5        2.06429   0.00000   0.00000   0.00000   0.00000   2.06429
    R6        4.29211  -0.00001   0.00000   0.00032   0.00032   4.29243
    R7        2.06609   0.00000   0.00000   0.00000   0.00000   2.06609
    R8        2.61412   0.00000   0.00000   0.00000   0.00000   2.61412
    R9        2.06000   0.00000   0.00000   0.00001   0.00001   2.06001
   R10        2.06609   0.00000   0.00000   0.00000   0.00000   2.06609
   R11        2.66174   0.00001   0.00000   0.00002   0.00002   2.66177
   R12        2.06934   0.00000   0.00000   0.00000   0.00000   2.06934
   R13        2.61415  -0.00001   0.00000  -0.00003  -0.00003   2.61412
   R14        2.06934   0.00000   0.00000   0.00000   0.00000   2.06934
   R15        2.06002   0.00000   0.00000  -0.00001  -0.00001   2.06001
    A1        2.01449   0.00000   0.00000   0.00000   0.00000   2.01449
    A2        2.09364   0.00000   0.00000  -0.00002  -0.00002   2.09362
    A3        2.09513   0.00000   0.00000  -0.00002  -0.00002   2.09511
    A4        2.09507   0.00000   0.00000   0.00003   0.00003   2.09509
    A5        2.09363   0.00000   0.00000   0.00001   0.00001   2.09364
    A6        1.90355  -0.00001   0.00000  -0.00001  -0.00001   1.90354
    A7        2.01449   0.00000   0.00000   0.00000   0.00000   2.01449
    A8        1.59082   0.00000   0.00000  -0.00020  -0.00020   1.59062
    A9        1.57979   0.00001   0.00000   0.00011   0.00011   1.57991
   A10        2.09640   0.00000   0.00000  -0.00001  -0.00001   2.09639
   A11        2.00555   0.00000   0.00000  -0.00001  -0.00001   2.00554
   A12        2.10405   0.00000   0.00000  -0.00002  -0.00002   2.10403
   A13        2.05899   0.00000   0.00000  -0.00008  -0.00008   2.05891
   A14        2.12725  -0.00002   0.00000   0.00000   0.00000   2.12725
   A15        2.07374   0.00001   0.00000   0.00005   0.00005   2.07379
   A16        2.12723   0.00000   0.00000   0.00002   0.00002   2.12725
   A17        2.07379   0.00000   0.00000   0.00000   0.00000   2.07379
   A18        2.05894   0.00000   0.00000  -0.00002  -0.00002   2.05892
   A19        1.81639   0.00001   0.00000  -0.00002  -0.00002   1.81637
   A20        1.77619  -0.00002   0.00000  -0.00005  -0.00005   1.77614
   A21        1.47788   0.00000   0.00000  -0.00011  -0.00011   1.47777
   A22        2.09642   0.00001   0.00000  -0.00003  -0.00003   2.09639
   A23        2.00550   0.00000   0.00000   0.00005   0.00005   2.00555
   A24        2.10397   0.00000   0.00000   0.00006   0.00006   2.10403
    D1       -2.70373  -0.00001   0.00000  -0.00004  -0.00004  -2.70378
    D2       -0.00014   0.00000   0.00000   0.00007   0.00007  -0.00007
    D3        1.78241   0.00000   0.00000   0.00020   0.00020   1.78261
    D4        0.00007  -0.00001   0.00000  -0.00016  -0.00016  -0.00009
    D5        2.70366   0.00000   0.00000  -0.00005  -0.00005   2.70361
    D6       -1.79698   0.00000   0.00000   0.00009   0.00009  -1.79689
    D7        3.06330  -0.00001   0.00000  -0.00034  -0.00034   3.06296
    D8        0.87304   0.00000   0.00000  -0.00028  -0.00028   0.87277
    D9       -1.22368   0.00000   0.00000  -0.00031  -0.00031  -1.22400
   D10        0.92603   0.00000   0.00000  -0.00028  -0.00028   0.92574
   D11       -1.26423   0.00000   0.00000  -0.00022  -0.00022  -1.26445
   D12        2.92223   0.00000   0.00000  -0.00026  -0.00026   2.92197
   D13       -1.08878   0.00000   0.00000  -0.00028  -0.00028  -1.08906
   D14        3.00415   0.00000   0.00000  -0.00022  -0.00022   3.00393
   D15        0.90742   0.00000   0.00000  -0.00025  -0.00025   0.90717
   D16        3.01192   0.00000   0.00000   0.00009   0.00009   3.01200
   D17        0.10494   0.00000   0.00000   0.00005   0.00005   0.10499
   D18       -0.56247   0.00000   0.00000  -0.00001  -0.00001  -0.56248
   D19        2.81374   0.00000   0.00000  -0.00005  -0.00005   2.81370
   D20       -2.90893   0.00000   0.00000   0.00008   0.00008  -2.90886
   D21       -0.00005   0.00000   0.00000   0.00012   0.00012   0.00007
   D22        0.00004  -0.00001   0.00000  -0.00002  -0.00002   0.00002
   D23        2.90892   0.00000   0.00000   0.00002   0.00002   2.90894
   D24       -1.02119   0.00001   0.00000   0.00014   0.00014  -1.02105
   D25       -3.01219   0.00001   0.00000   0.00021   0.00021  -3.01198
   D26        0.56251   0.00000   0.00000  -0.00001  -0.00001   0.56250
   D27        1.88589   0.00000   0.00000   0.00003   0.00003   1.88591
   D28       -0.10512   0.00000   0.00000   0.00010   0.00010  -0.10502
   D29       -2.81360  -0.00001   0.00000  -0.00013  -0.00013  -2.81372
         Item               Value     Threshold  Converged?
 Maximum Force            0.000024     0.000450     YES
 RMS     Force            0.000006     0.000300     YES
 Maximum Displacement     0.000516     0.001800     YES
 RMS     Displacement     0.000176     0.001200     YES
 Predicted change in Energy=-7.329974D-09
 Optimization completed.
    -- Stationary point found.
                           ----------------------------
                           !   Optimized Parameters   !
                           ! (Angstroms and Degrees)  !
 --------------------------                            --------------------------
 ! Name  Definition              Value          Derivative Info.                !
 --------------------------------------------------------------------------------
 ! R1    R(1,2)                  1.0924         -DE/DX =    0.0                 !
 ! R2    R(2,3)                  1.0907         -DE/DX =    0.0                 !
 ! R3    R(2,4)                  1.386          -DE/DX =    0.0                 !
 ! R4    R(4,5)                  1.0907         -DE/DX =    0.0                 !
 ! R5    R(4,6)                  1.0924         -DE/DX =    0.0                 !
 ! R6    R(4,14)                 2.2713         -DE/DX =    0.0                 !
 ! R7    R(7,8)                  1.0933         -DE/DX =    0.0                 !
 ! R8    R(8,12)                 1.3833         -DE/DX =    0.0                 !
 ! R9    R(8,16)                 1.0901         -DE/DX =    0.0                 !
 ! R10   R(9,14)                 1.0933         -DE/DX =    0.0                 !
 ! R11   R(10,12)                1.4085         -DE/DX =    0.0                 !
 ! R12   R(10,13)                1.095          -DE/DX =    0.0                 !
 ! R13   R(10,14)                1.3833         -DE/DX =    0.0                 !
 ! R14   R(11,12)                1.095          -DE/DX =    0.0                 !
 ! R15   R(14,15)                1.0901         -DE/DX =    0.0                 !
 ! A1    A(1,2,3)              115.4219         -DE/DX =    0.0                 !
 ! A2    A(1,2,4)              119.9567         -DE/DX =    0.0                 !
 ! A3    A(3,2,4)              120.0424         -DE/DX =    0.0                 !
 ! A4    A(2,4,5)              120.0384         -DE/DX =    0.0                 !
 ! A5    A(2,4,6)              119.956          -DE/DX =    0.0                 !
 ! A6    A(2,4,14)             109.0656         -DE/DX =    0.0                 !
 ! A7    A(5,4,6)              115.4221         -DE/DX =    0.0                 !
 ! A8    A(5,4,14)              91.1474         -DE/DX =    0.0                 !
 ! A9    A(6,4,14)              90.5156         -DE/DX =    0.0                 !
 ! A10   A(7,8,12)             120.115          -DE/DX =    0.0                 !
 ! A11   A(7,8,16)             114.9095         -DE/DX =    0.0                 !
 ! A12   A(12,8,16)            120.553          -DE/DX =    0.0                 !
 ! A13   A(12,10,13)           117.9713         -DE/DX =    0.0                 !
 ! A14   A(12,10,14)           121.8824         -DE/DX =    0.0                 !
 ! A15   A(13,10,14)           118.8167         -DE/DX =    0.0                 !
 ! A16   A(8,12,10)            121.8813         -DE/DX =    0.0                 !
 ! A17   A(8,12,11)            118.8193         -DE/DX =    0.0                 !
 ! A18   A(10,12,11)           117.9688         -DE/DX =    0.0                 !
 ! A19   A(4,14,9)             104.0713         -DE/DX =    0.0                 !
 ! A20   A(4,14,10)            101.7682         -DE/DX =    0.0                 !
 ! A21   A(4,14,15)             84.6762         -DE/DX =    0.0                 !
 ! A22   A(9,14,10)            120.1158         -DE/DX =    0.0                 !
 ! A23   A(9,14,15)            114.9066         -DE/DX =    0.0                 !
 ! A24   A(10,14,15)           120.5486         -DE/DX =    0.0                 !
 ! D1    D(1,2,4,5)           -154.9126         -DE/DX =    0.0                 !
 ! D2    D(1,2,4,6)             -0.008          -DE/DX =    0.0                 !
 ! D3    D(1,2,4,14)           102.1244         -DE/DX =    0.0                 !
 ! D4    D(3,2,4,5)              0.0039         -DE/DX =    0.0                 !
 ! D5    D(3,2,4,6)            154.9085         -DE/DX =    0.0                 !
 ! D6    D(3,2,4,14)          -102.9591         -DE/DX =    0.0                 !
 ! D7    D(2,4,14,9)           175.5141         -DE/DX =    0.0                 !
 ! D8    D(2,4,14,10)           50.0217         -DE/DX =    0.0                 !
 ! D9    D(2,4,14,15)          -70.1118         -DE/DX =    0.0                 !
 ! D10   D(5,4,14,9)            53.0574         -DE/DX =    0.0                 !
 ! D11   D(5,4,14,10)          -72.435          -DE/DX =    0.0                 !
 ! D12   D(5,4,14,15)          167.4314         -DE/DX =    0.0                 !
 ! D13   D(6,4,14,9)           -62.3827         -DE/DX =    0.0                 !
 ! D14   D(6,4,14,10)          172.1249         -DE/DX =    0.0                 !
 ! D15   D(6,4,14,15)           51.9914         -DE/DX =    0.0                 !
 ! D16   D(7,8,12,10)          172.5701         -DE/DX =    0.0                 !
 ! D17   D(7,8,12,11)            6.0128         -DE/DX =    0.0                 !
 ! D18   D(16,8,12,10)         -32.2272         -DE/DX =    0.0                 !
 ! D19   D(16,8,12,11)         161.2154         -DE/DX =    0.0                 !
 ! D20   D(13,10,12,8)        -166.6696         -DE/DX =    0.0                 !
 ! D21   D(13,10,12,11)         -0.0028         -DE/DX =    0.0                 !
 ! D22   D(14,10,12,8)           0.0023         -DE/DX =    0.0                 !
 ! D23   D(14,10,12,11)        166.6691         -DE/DX =    0.0                 !
 ! D24   D(12,10,14,4)         -58.5099         -DE/DX =    0.0                 !
 ! D25   D(12,10,14,9)        -172.5858         -DE/DX =    0.0                 !
 ! D26   D(12,10,14,15)         32.2294         -DE/DX =    0.0                 !
 ! D27   D(13,10,14,4)         108.0533         -DE/DX =    0.0                 !
 ! D28   D(13,10,14,9)          -6.0227         -DE/DX =    0.0                 !
 ! D29   D(13,10,14,15)       -161.2074         -DE/DX =    0.0                 !
 --------------------------------------------------------------------------------
 GradGradGradGradGradGradGradGradGradGradGradGradGradGradGradGradGradGrad

                          Input orientation:                          
 ---------------------------------------------------------------------
 Center     Atomic      Atomic             Coordinates (Angstroms)
 Number     Number       Type             X           Y           Z
 ---------------------------------------------------------------------
      1          1           0        0.834005   -1.840303   -1.254122
      2          6           0        1.070943   -1.140796   -0.449243
      3          1           0        1.395688   -1.596725    0.486856
      4          6           0        1.435781    0.162162   -0.749701
      5          1           0        2.048051    0.732791   -0.050319
      6          1           0        1.486130    0.488161   -1.791080
      7          1           0       -1.268793   -2.204399    0.529568
      8          6           0       -1.094137   -1.165246    0.237985
      9          1           0        0.058335    2.534972   -0.565225
     10          6           0       -0.727058    1.158027    0.888717
     11          1           0       -1.178285   -0.445967    2.250129
     12          6           0       -1.097888   -0.165953    1.194547
     13          1           0       -0.537073    1.843533    1.721250
     14          6           0       -0.338635    1.532301   -0.385136
     15          1           0       -0.766315    1.043749   -1.260785
     16          1           0       -1.320747   -0.936306   -0.803439
 ---------------------------------------------------------------------
                    Distance matrix (angstroms):
                    1          2          3          4          5
     1  H    0.000000
     2  C    1.092373   0.000000
     3  H    1.845487   1.090694   0.000000
     4  C    2.150916   1.386030   2.150434   0.000000
     5  H    3.089315   2.150397   2.478060   1.090701   0.000000
     6  H    2.476961   2.150908   3.089324   1.092373   1.845494
     7  H    2.781343   2.750216   2.733231   3.814690   4.468199
     8  C    2.529785   2.271663   2.539162   3.022916   3.682256
     9  H    4.496584   3.814459   4.468368   2.749840   2.733487
    10  C    4.002331   3.210534   3.500886   2.890334   2.960378
    11  H    4.274722   3.581679   3.325464   4.025189   4.134099
    12  C    3.540005   2.890708   2.960719   3.210489   3.500623
    13  H    4.929841   4.025292   4.134570   3.581168   3.324916
    14  C    3.674871   3.022659   3.682262   2.271287   2.539210
    15  H    3.298306   2.967550   3.834138   2.426444   3.079380
    16  H    2.379765   2.426407   3.078967   2.967822   3.834302
                    6          7          8          9         10
     6  H    0.000000
     7  H    4.497208   0.000000
     8  C    3.675409   1.093327   0.000000
     9  H    2.780423   5.041971   3.957897   0.000000
    10  C    3.539524   3.424671   2.440450   2.150992   0.000000
    11  H    4.929814   2.461829   2.138496   4.282691   2.151707
    12  C    4.002371   2.150968   1.383333   3.424711   1.408534
    13  H    4.273972   4.282671   3.400463   2.461821   1.095045
    14  C    2.529164   3.957878   2.869812   1.093328   1.383349
    15  H    2.379790   3.742768   2.689505   1.840543   2.152895
    16  H    3.298954   1.840561   1.090104   3.742778   2.757188
                   11         12         13         14         15
    11  H    0.000000
    12  C    1.095046   0.000000
    13  H    2.435709   2.151735   0.000000
    14  C    3.400467   2.440477   2.138482   0.000000
    15  H    3.836077   2.757167   3.095923   1.090116   0.000000
    16  H    3.095965   2.152918   3.836105   2.689524   2.106461
                   16
    16  H    0.000000
 Stoichiometry    C6H10
 Framework group  C1[X(C6H10)]
 Deg. of freedom    42
 Full point group                 C1      NOp   1
 Largest Abelian subgroup         C1      NOp   1
 Largest concise Abelian subgroup C1      NOp   1
                         Standard orientation:                         
 ---------------------------------------------------------------------
 Center     Atomic      Atomic             Coordinates (Angstroms)
 Number     Number       Type             X           Y           Z
 ---------------------------------------------------------------------
      1          1           0       -2.072611   -1.238795    0.573519
      2          6           0       -1.572393   -0.693419   -0.229990
      3          1           0       -1.460071   -1.239639   -1.167348
      4          6           0       -1.572581    0.692611   -0.230271
      5          1           0       -1.460465    1.238420   -1.167901
      6          1           0       -2.073062    1.238166    0.572953
      7          1           0        0.388422   -2.520944    0.385677
      8          6           0        0.448377   -1.434861    0.496100
      9          1           0        0.386638    2.521027    0.386154
     10          6           0        1.317035    0.704683   -0.293569
     11          1           0        1.864452   -1.217158   -1.091509
     12          6           0        1.317595   -0.703851   -0.293643
     13          1           0        1.863510    1.218551   -1.091334
     14          6           0        0.447269    1.434950    0.496286
     15          1           0        0.125336    1.053077    1.465246
     16          1           0        0.126035   -1.053384    1.465068
 ---------------------------------------------------------------------
 Rotational constants (GHZ):      4.3305489      3.4680448      2.2646735

 **********************************************************************

            Population analysis using the SCF density.

 **********************************************************************

 Orbital symmetries:
       Occupied  (A) (A) (A) (A) (A) (A) (A) (A) (A) (A) (A) (A)
                 (A) (A) (A) (A) (A) (A) (A) (A) (A) (A) (A)
       Virtual   (A) (A) (A) (A) (A) (A) (A) (A) (A) (A) (A) (A)
                 (A) (A) (A) (A) (A) (A) (A) (A) (A) (A) (A) (A)
                 (A) (A) (A) (A) (A) (A) (A) (A) (A) (A) (A) (A)
                 (A) (A) (A) (A) (A) (A) (A) (A) (A) (A) (A) (A)
                 (A) (A) (A) (A) (A) (A) (A) (A) (A) (A) (A) (A)
                 (A) (A) (A) (A) (A) (A) (A) (A) (A) (A) (A) (A)
                 (A) (A) (A) (A) (A) (A) (A) (A) (A) (A) (A) (A)
                 (A) (A) (A) (A) (A) (A) (A) (A) (A) (A) (A) (A)
                 (A) (A) (A) (A) (A) (A) (A) (A) (A) (A) (A) (A)
                 (A) (A) (A)
 The electronic state is 1-A.
 Alpha  occ. eigenvalues --  -10.19254 -10.19245 -10.18786 -10.18745 -10.18009
 Alpha  occ. eigenvalues --  -10.17979  -0.79997  -0.73756  -0.70871  -0.61522
 Alpha  occ. eigenvalues --   -0.57286  -0.51276  -0.48958  -0.46296  -0.42864
 Alpha  occ. eigenvalues --   -0.40816  -0.40430  -0.36517  -0.35639  -0.34481
 Alpha  occ. eigenvalues --   -0.34143  -0.23124  -0.22924
 Alpha virt. eigenvalues --   -0.02147   0.00695   0.05944   0.07378   0.09609
 Alpha virt. eigenvalues --    0.10838   0.10842   0.11407   0.13362   0.15116
 Alpha virt. eigenvalues --    0.15981   0.18733   0.21492   0.27651   0.30778
 Alpha virt. eigenvalues --    0.32394   0.36979   0.39257   0.39564   0.42683
 Alpha virt. eigenvalues --    0.46191   0.46740   0.46802   0.47851   0.52926
 Alpha virt. eigenvalues --    0.53926   0.54154   0.56316   0.59943   0.63953
 Alpha virt. eigenvalues --    0.64945   0.65736   0.66172   0.66419   0.67327
 Alpha virt. eigenvalues --    0.68943   0.69159   0.70648   0.71522   0.72242
 Alpha virt. eigenvalues --    0.72557   0.76799   0.78234   0.80401   0.87439
 Alpha virt. eigenvalues --    0.89382   0.93659   0.97206   1.02683   1.07904
 Alpha virt. eigenvalues --    1.20231   1.25390   1.26577   1.28104   1.30046
 Alpha virt. eigenvalues --    1.34449   1.36444   1.41836   1.49348   1.60982
 Alpha virt. eigenvalues --    1.61053   1.63426   1.66093   1.67273   1.69403
 Alpha virt. eigenvalues --    1.71418   1.72823   1.76309   1.77754   1.77845
 Alpha virt. eigenvalues --    1.80249   1.80682   1.81085   1.87364   1.87503
 Alpha virt. eigenvalues --    1.89219   1.89723   1.95454   1.97482   1.98449
 Alpha virt. eigenvalues --    2.05197   2.07129   2.08023   2.14438   2.15466
 Alpha virt. eigenvalues --    2.18510   2.19606   2.20761   2.25539   2.34048
 Alpha virt. eigenvalues --    2.34442   2.38948   2.40131   2.43969   2.45196
 Alpha virt. eigenvalues --    2.50848   2.60791   2.65408   2.69694   2.70851
 Alpha virt. eigenvalues --    2.74437   2.77222   2.80670   2.80788   2.88831
 Alpha virt. eigenvalues --    2.89321   3.03953   3.07510   3.13825   3.24892
 Alpha virt. eigenvalues --    3.42661
          Condensed to atoms (all electrons):
               1          2          3          4          5          6
     1  H    0.687053   0.373280  -0.045297  -0.017690   0.008593  -0.018389
     2  C    0.373280   4.668061   0.376833   0.616777  -0.011760  -0.017685
     3  H   -0.045297   0.376833   0.667710  -0.011758  -0.017211   0.008592
     4  C   -0.017690   0.616777  -0.011758   4.667997   0.376834   0.373260
     5  H    0.008593  -0.011760  -0.017211   0.376834   0.667726  -0.045293
     6  H   -0.018389  -0.017685   0.008592   0.373260  -0.045293   0.687060
     7  H    0.001213  -0.007117  -0.002683   0.003054  -0.000056  -0.000126
     8  C   -0.001826   0.129415  -0.003317  -0.020824   0.000947   0.000162
     9  H   -0.000126   0.003056  -0.000056  -0.007116  -0.002684   0.001210
    10  C    0.003035  -0.044123  -0.002085  -0.003738  -0.000613  -0.003142
    11  H   -0.000205   0.000861   0.001047  -0.000454  -0.000065   0.000036
    12  C   -0.003138  -0.003716  -0.000620  -0.044116  -0.002088   0.003035
    13  H    0.000036  -0.000454  -0.000064   0.000860   0.001049  -0.000206
    14  C    0.000158  -0.020844   0.000949   0.129457  -0.003340  -0.001823
    15  H    0.001561  -0.016858  -0.000017   0.000154   0.001558  -0.008615
    16  H   -0.008611   0.000173   0.001552  -0.016853  -0.000016   0.001557
               7          8          9         10         11         12
     1  H    0.001213  -0.001826  -0.000126   0.003035  -0.000205  -0.003138
     2  C   -0.007117   0.129415   0.003056  -0.044123   0.000861  -0.003716
     3  H   -0.002683  -0.003317  -0.000056  -0.002085   0.001047  -0.000620
     4  C    0.003054  -0.020824  -0.007116  -0.003738  -0.000454  -0.044116
     5  H   -0.000056   0.000947  -0.002684  -0.000613  -0.000065  -0.002088
     6  H   -0.000126   0.000162   0.001210  -0.003142   0.000036   0.003035
     7  H    0.680699   0.373506  -0.000035   0.013934  -0.015066  -0.019891
     8  C    0.373506   4.728209  -0.000088  -0.024823  -0.070227   0.531537
     9  H   -0.000035  -0.000088   0.680709  -0.019878  -0.000316   0.013932
    10  C    0.013934  -0.024823  -0.019878   4.855296  -0.056616   0.394883
    11  H   -0.015066  -0.070227  -0.000316  -0.056616   0.724982   0.420240
    12  C   -0.019891   0.531537   0.013932   0.394883   0.420240   4.855216
    13  H   -0.000316   0.014027  -0.015065   0.420238  -0.015363  -0.056611
    14  C   -0.000089  -0.041276   0.373485   0.531497   0.014029  -0.024825
    15  H   -0.000089   0.020502  -0.045253   0.020526  -0.000203  -0.040425
    16  H   -0.045255   0.349708  -0.000090  -0.040424   0.009524   0.020528
              13         14         15         16
     1  H    0.000036   0.000158   0.001561  -0.008611
     2  C   -0.000454  -0.020844  -0.016858   0.000173
     3  H   -0.000064   0.000949  -0.000017   0.001552
     4  C    0.000860   0.129457   0.000154  -0.016853
     5  H    0.001049  -0.003340   0.001558  -0.000016
     6  H   -0.000206  -0.001823  -0.008615   0.001557
     7  H   -0.000316  -0.000089  -0.000089  -0.045255
     8  C    0.014027  -0.041276   0.020502   0.349708
     9  H   -0.015065   0.373485  -0.045253  -0.000090
    10  C    0.420238   0.531497   0.020526  -0.040424
    11  H   -0.015363   0.014029  -0.000203   0.009524
    12  C   -0.056611  -0.024825  -0.040425   0.020528
    13  H    0.724975  -0.070225   0.009524  -0.000203
    14  C   -0.070225   4.728246   0.349717   0.020512
    15  H    0.009524   0.349717   0.686973  -0.001614
    16  H   -0.000203   0.020512  -0.001614   0.686962
 Mulliken charges:
               1
     1  H    0.020356
     2  C   -0.045898
     3  H    0.026426
     4  C   -0.045842
     5  H    0.026419
     6  H    0.020369
     7  H    0.018318
     8  C    0.014367
     9  H    0.018315
    10  C   -0.043966
    11  H   -0.012204
    12  C   -0.043939
    13  H   -0.012202
    14  C    0.014374
    15  H    0.022558
    16  H    0.022550
 Sum of Mulliken charges =   0.00000
 Mulliken charges with hydrogens summed into heavy atoms:
               1
     2  C    0.000884
     4  C    0.000946
     8  C    0.055236
    10  C   -0.056169
    12  C   -0.056143
    14  C    0.055246
 Electronic spatial extent (au):  <R**2>=            616.0257
 Charge=              0.0000 electrons
 Dipole moment (field-independent basis, Debye):
    X=             -0.4148    Y=              0.0002    Z=              0.0238  Tot=              0.4155
 Quadrupole moment (field-independent basis, Debye-Ang):
   XX=            -41.6047   YY=            -36.4305   ZZ=            -37.3599
   XY=             -0.0017   XZ=             -2.5766   YZ=             -0.0005
 Traceless Quadrupole moment (field-independent basis, Debye-Ang):
   XX=             -3.1396   YY=              2.0345   ZZ=              1.1051
   XY=             -0.0017   XZ=             -2.5766   YZ=             -0.0005
 Octapole moment (field-independent basis, Debye-Ang**2):
  XXX=              0.5842  YYY=              0.0000  ZZZ=              0.2394  XYY=             -1.2117
  XXY=              0.0015  XXZ=             -1.6545  XZZ=             -1.1586  YZZ=             -0.0002
  YYZ=             -1.1549  XYZ=             -0.0001
 Hexadecapole moment (field-independent basis, Debye-Ang**3):
 XXXX=           -437.2679 YYYY=           -320.5394 ZZZZ=           -107.2730 XXXY=             -0.0086
 XXXZ=            -16.8231 YYYX=             -0.0077 YYYZ=              0.0009 ZZZX=             -3.1284
 ZZZY=             -0.0021 XXYY=           -125.0912 XXZZ=            -84.9246 YYZZ=            -73.9454
 XXYZ=             -0.0015 YYXZ=             -4.2566 ZZXY=              0.0004
 N-N= 2.238647128789D+02 E-N=-9.886168919719D+02  KE= 2.313652893083D+02
 1\1\GINC-GAU-XTB--51D3FDB9B383-UYR6JPG3PH\FTS\RB3LYP\def2SVP\C6H10\ROO
 T\16-Jun-2026\0\\# p opt(TS,calcfc,noeigen) freq b3lyp/def2svp Empiric
 alDispersion=gd3bj geom=PrintInputOrient\\Generated by UniTS\\0,1\H,0.
 8340047252,-1.840302958,-1.2541216612\C,1.0709432569,-1.1407956056,-0.
 4492434289\H,1.3956884654,-1.5967250277,0.4868562829\C,1.4357813054,0.
 1621616959,-0.7497013813\H,2.0480507823,0.732791435,-0.050318685\H,1.4
 861297816,0.4881611936,-1.7910795908\H,-1.2687928601,-2.204398546,0.52
 95677911\C,-1.0941370784,-1.1652458698,0.237984669\H,0.0583346108,2.53
 49718226,-0.5652249843\C,-0.7270575391,1.1580266381,0.8887169256\H,-1.
 1782849743,-0.4459674243,2.2501285498\C,-1.0978880973,-0.1659530392,1.
 1945466072\H,-0.5370725526,1.8435332688,1.7212496409\C,-0.3386354415,1
 .5323006982,-0.3851362513\H,-0.7663154879,1.0437490429,-1.2607848826\H
 ,-1.3207468964,-0.9363063245,-0.803438601\\Version=ES64L-G09RevD.01\St
 ate=1-A\HF=-234.4017861\RMSD=8.441e-09\RMSF=6.035e-06\Dipole=0.1189419
 ,-0.0556402,-0.0973571\Quadrupole=-2.6917842,1.0930874,1.5986968,1.345
 7272,0.7295456,-0.1846801\PG=C01 [X(C6H10)]\\@


 HE WHO LAUGHS LAST PROBABLY DIDN'T GET THE JOKE.
 Job cpu time:       0 days  0 hours 10 minutes 24.0 seconds.
 File lengths (MBytes):  RWF=     34 Int=      0 D2E=      0 Chk=      3 Scr=      1
 Normal termination of Gaussian 09 at Tue Jun 16 08:30:12 2026.
 Link1:  Proceeding to internal job step number  2.
 -------------------------------------------------------------------
 #N Geom=AllCheck Guess=TCheck SCRF=Check GenChk RB3LYP/def2SVP Freq
 -------------------------------------------------------------------
 1/5=1,10=4,11=1,29=7,30=1,38=1,40=1/1,3;
 2/9=2000,12=2,40=1/2;
 3/5=43,7=101,11=2,14=-4,16=1,25=1,30=1,70=2,71=2,74=-5,116=1,124=41,140=1/1,2,3;
 4/5=101/1;
 5/5=2,98=1/2;
 8/6=4,10=90,11=11/1;
 11/6=1,8=1,9=11,15=111,16=1/1,2,10;
 10/6=1/2;
 6/7=2,8=2,9=2,10=2,18=1,28=1/1;
 7/8=1,10=1,25=1/1,2,3,16;
 1/5=1,10=4,11=1,30=1/3;
 99//99;
 Structure from the checkpoint file:  "/tmp/Gau-3243550.chk"
 ------------------
 Generated by UniTS
 ------------------
 Charge =  0 Multiplicity = 1
 Redundant internal coordinates found in file.
 H,0,0.8340047252,-1.840302958,-1.2541216612
 C,0,1.0709432569,-1.1407956056,-0.4492434289
 H,0,1.3956884654,-1.5967250277,0.4868562829
 C,0,1.4357813054,0.1621616959,-0.7497013813
 H,0,2.0480507823,0.732791435,-0.050318685
 H,0,1.4861297816,0.4881611936,-1.7910795908
 H,0,-1.2687928601,-2.204398546,0.5295677911
 C,0,-1.0941370784,-1.1652458698,0.237984669
 H,0,0.0583346108,2.5349718226,-0.5652249843
 C,0,-0.7270575391,1.1580266381,0.8887169256
 H,0,-1.1782849743,-0.4459674243,2.2501285498
 C,0,-1.0978880973,-0.1659530392,1.1945466072
 H,0,-0.5370725526,1.8435332688,1.7212496409
 C,0,-0.3386354415,1.5323006982,-0.3851362513
 H,0,-0.7663154879,1.0437490429,-1.2607848826
 H,0,-1.3207468964,-0.9363063245,-0.803438601
 Recover connectivity data from disk.

 GradGradGradGradGradGradGradGradGradGradGradGradGradGradGradGradGradGrad
 Berny optimization.
 Initialization pass.
                           ----------------------------
                           !    Initial Parameters    !
                           ! (Angstroms and Degrees)  !
 --------------------------                            --------------------------
 ! Name  Definition              Value          Derivative Info.                !
 --------------------------------------------------------------------------------
 ! R1    R(1,2)                  1.0924         calculate D2E/DX2 analytically  !
 ! R2    R(2,3)                  1.0907         calculate D2E/DX2 analytically  !
 ! R3    R(2,4)                  1.386          calculate D2E/DX2 analytically  !
 ! R4    R(4,5)                  1.0907         calculate D2E/DX2 analytically  !
 ! R5    R(4,6)                  1.0924         calculate D2E/DX2 analytically  !
 ! R6    R(4,14)                 2.2713         calculate D2E/DX2 analytically  !
 ! R7    R(7,8)                  1.0933         calculate D2E/DX2 analytically  !
 ! R8    R(8,12)                 1.3833         calculate D2E/DX2 analytically  !
 ! R9    R(8,16)                 1.0901         calculate D2E/DX2 analytically  !
 ! R10   R(9,14)                 1.0933         calculate D2E/DX2 analytically  !
 ! R11   R(10,12)                1.4085         calculate D2E/DX2 analytically  !
 ! R12   R(10,13)                1.095          calculate D2E/DX2 analytically  !
 ! R13   R(10,14)                1.3833         calculate D2E/DX2 analytically  !
 ! R14   R(11,12)                1.095          calculate D2E/DX2 analytically  !
 ! R15   R(14,15)                1.0901         calculate D2E/DX2 analytically  !
 ! A1    A(1,2,3)              115.4219         calculate D2E/DX2 analytically  !
 ! A2    A(1,2,4)              119.9567         calculate D2E/DX2 analytically  !
 ! A3    A(3,2,4)              120.0424         calculate D2E/DX2 analytically  !
 ! A4    A(2,4,5)              120.0384         calculate D2E/DX2 analytically  !
 ! A5    A(2,4,6)              119.956          calculate D2E/DX2 analytically  !
 ! A6    A(2,4,14)             109.0656         calculate D2E/DX2 analytically  !
 ! A7    A(5,4,6)              115.4221         calculate D2E/DX2 analytically  !
 ! A8    A(5,4,14)              91.1474         calculate D2E/DX2 analytically  !
 ! A9    A(6,4,14)              90.5156         calculate D2E/DX2 analytically  !
 ! A10   A(7,8,12)             120.115          calculate D2E/DX2 analytically  !
 ! A11   A(7,8,16)             114.9095         calculate D2E/DX2 analytically  !
 ! A12   A(12,8,16)            120.553          calculate D2E/DX2 analytically  !
 ! A13   A(12,10,13)           117.9713         calculate D2E/DX2 analytically  !
 ! A14   A(12,10,14)           121.8824         calculate D2E/DX2 analytically  !
 ! A15   A(13,10,14)           118.8167         calculate D2E/DX2 analytically  !
 ! A16   A(8,12,10)            121.8813         calculate D2E/DX2 analytically  !
 ! A17   A(8,12,11)            118.8193         calculate D2E/DX2 analytically  !
 ! A18   A(10,12,11)           117.9688         calculate D2E/DX2 analytically  !
 ! A19   A(4,14,9)             104.0713         calculate D2E/DX2 analytically  !
 ! A20   A(4,14,10)            101.7682         calculate D2E/DX2 analytically  !
 ! A21   A(4,14,15)             84.6762         calculate D2E/DX2 analytically  !
 ! A22   A(9,14,10)            120.1158         calculate D2E/DX2 analytically  !
 ! A23   A(9,14,15)            114.9066         calculate D2E/DX2 analytically  !
 ! A24   A(10,14,15)           120.5486         calculate D2E/DX2 analytically  !
 ! D1    D(1,2,4,5)           -154.9126         calculate D2E/DX2 analytically  !
 ! D2    D(1,2,4,6)             -0.008          calculate D2E/DX2 analytically  !
 ! D3    D(1,2,4,14)           102.1244         calculate D2E/DX2 analytically  !
 ! D4    D(3,2,4,5)              0.0039         calculate D2E/DX2 analytically  !
 ! D5    D(3,2,4,6)            154.9085         calculate D2E/DX2 analytically  !
 ! D6    D(3,2,4,14)          -102.9591         calculate D2E/DX2 analytically  !
 ! D7    D(2,4,14,9)           175.5141         calculate D2E/DX2 analytically  !
 ! D8    D(2,4,14,10)           50.0217         calculate D2E/DX2 analytically  !
 ! D9    D(2,4,14,15)          -70.1118         calculate D2E/DX2 analytically  !
 ! D10   D(5,4,14,9)            53.0574         calculate D2E/DX2 analytically  !
 ! D11   D(5,4,14,10)          -72.435          calculate D2E/DX2 analytically  !
 ! D12   D(5,4,14,15)          167.4314         calculate D2E/DX2 analytically  !
 ! D13   D(6,4,14,9)           -62.3827         calculate D2E/DX2 analytically  !
 ! D14   D(6,4,14,10)          172.1249         calculate D2E/DX2 analytically  !
 ! D15   D(6,4,14,15)           51.9914         calculate D2E/DX2 analytically  !
 ! D16   D(7,8,12,10)          172.5701         calculate D2E/DX2 analytically  !
 ! D17   D(7,8,12,11)            6.0128         calculate D2E/DX2 analytically  !
 ! D18   D(16,8,12,10)         -32.2272         calculate D2E/DX2 analytically  !
 ! D19   D(16,8,12,11)         161.2154         calculate D2E/DX2 analytically  !
 ! D20   D(13,10,12,8)        -166.6696         calculate D2E/DX2 analytically  !
 ! D21   D(13,10,12,11)         -0.0028         calculate D2E/DX2 analytically  !
 ! D22   D(14,10,12,8)           0.0023         calculate D2E/DX2 analytically  !
 ! D23   D(14,10,12,11)        166.6691         calculate D2E/DX2 analytically  !
 ! D24   D(12,10,14,4)         -58.5099         calculate D2E/DX2 analytically  !
 ! D25   D(12,10,14,9)        -172.5858         calculate D2E/DX2 analytically  !
 ! D26   D(12,10,14,15)         32.2294         calculate D2E/DX2 analytically  !
 ! D27   D(13,10,14,4)         108.0533         calculate D2E/DX2 analytically  !
 ! D28   D(13,10,14,9)          -6.0227         calculate D2E/DX2 analytically  !
 ! D29   D(13,10,14,15)       -161.2074         calculate D2E/DX2 analytically  !
 --------------------------------------------------------------------------------
 Trust Radius=3.00D-01 FncErr=1.00D-07 GrdErr=1.00D-07
 Number of steps in this run=      2 maximum allowed number of steps=      2.
 Search for a saddle point of order  1.
 GradGradGradGradGradGradGradGradGradGradGradGradGradGradGradGradGradGrad

                          Input orientation:                          
 ---------------------------------------------------------------------
 Center     Atomic      Atomic             Coordinates (Angstroms)
 Number     Number       Type             X           Y           Z
 ---------------------------------------------------------------------
      1          1           0        0.834005   -1.840303   -1.254122
      2          6           0        1.070943   -1.140796   -0.449243
      3          1           0        1.395688   -1.596725    0.486856
      4          6           0        1.435781    0.162162   -0.749701
      5          1           0        2.048051    0.732791   -0.050319
      6          1           0        1.486130    0.488161   -1.791080
      7          1           0       -1.268793   -2.204399    0.529568
      8          6           0       -1.094137   -1.165246    0.237985
      9          1           0        0.058335    2.534972   -0.565225
     10          6           0       -0.727058    1.158027    0.888717
     11          1           0       -1.178285   -0.445967    2.250129
     12          6           0       -1.097888   -0.165953    1.194547
     13          1           0       -0.537073    1.843533    1.721250
     14          6           0       -0.338635    1.532301   -0.385136
     15          1           0       -0.766315    1.043749   -1.260785
     16          1           0       -1.320747   -0.936306   -0.803439
 ---------------------------------------------------------------------
                    Distance matrix (angstroms):
                    1          2          3          4          5
     1  H    0.000000
     2  C    1.092373   0.000000
     3  H    1.845487   1.090694   0.000000
     4  C    2.150916   1.386030   2.150434   0.000000
     5  H    3.089315   2.150397   2.478060   1.090701   0.000000
     6  H    2.476961   2.150908   3.089324   1.092373   1.845494
     7  H    2.781343   2.750216   2.733231   3.814690   4.468199
     8  C    2.529785   2.271663   2.539162   3.022916   3.682256
     9  H    4.496584   3.814459   4.468368   2.749840   2.733487
    10  C    4.002331   3.210534   3.500886   2.890334   2.960378
    11  H    4.274722   3.581679   3.325464   4.025189   4.134099
    12  C    3.540005   2.890708   2.960719   3.210489   3.500623
    13  H    4.929841   4.025292   4.134570   3.581168   3.324916
    14  C    3.674871   3.022659   3.682262   2.271287   2.539210
    15  H    3.298306   2.967550   3.834138   2.426444   3.079380
    16  H    2.379765   2.426407   3.078967   2.967822   3.834302
                    6          7          8          9         10
     6  H    0.000000
     7  H    4.497208   0.000000
     8  C    3.675409   1.093327   0.000000
     9  H    2.780423   5.041971   3.957897   0.000000
    10  C    3.539524   3.424671   2.440450   2.150992   0.000000
    11  H    4.929814   2.461829   2.138496   4.282691   2.151707
    12  C    4.002371   2.150968   1.383333   3.424711   1.408534
    13  H    4.273972   4.282671   3.400463   2.461821   1.095045
    14  C    2.529164   3.957878   2.869812   1.093328   1.383349
    15  H    2.379790   3.742768   2.689505   1.840543   2.152895
    16  H    3.298954   1.840561   1.090104   3.742778   2.757188
                   11         12         13         14         15
    11  H    0.000000
    12  C    1.095046   0.000000
    13  H    2.435709   2.151735   0.000000
    14  C    3.400467   2.440477   2.138482   0.000000
    15  H    3.836077   2.757167   3.095923   1.090116   0.000000
    16  H    3.095965   2.152918   3.836105   2.689524   2.106461
                   16
    16  H    0.000000
 Stoichiometry    C6H10
 Framework group  C1[X(C6H10)]
 Deg. of freedom    42
 Full point group                 C1      NOp   1
 Largest Abelian subgroup         C1      NOp   1
 Largest concise Abelian subgroup C1      NOp   1
                         Standard orientation:                         
 ---------------------------------------------------------------------
 Center     Atomic      Atomic             Coordinates (Angstroms)
 Number     Number       Type             X           Y           Z
 ---------------------------------------------------------------------
      1          1           0       -2.072611   -1.238795    0.573519
      2          6           0       -1.572393   -0.693419   -0.229990
      3          1           0       -1.460071   -1.239639   -1.167348
      4          6           0       -1.572581    0.692611   -0.230271
      5          1           0       -1.460465    1.238420   -1.167901
      6          1           0       -2.073062    1.238166    0.572953
      7          1           0        0.388422   -2.520944    0.385677
      8          6           0        0.448377   -1.434861    0.496100
      9          1           0        0.386638    2.521027    0.386154
     10          6           0        1.317035    0.704683   -0.293569
     11          1           0        1.864452   -1.217158   -1.091509
     12          6           0        1.317595   -0.703851   -0.293643
     13          1           0        1.863510    1.218551   -1.091334
     14          6           0        0.447269    1.434950    0.496286
     15          1           0        0.125336    1.053077    1.465246
     16          1           0        0.126035   -1.053384    1.465068
 ---------------------------------------------------------------------
 Rotational constants (GHZ):      4.3305489      3.4680448      2.2646735
 Standard basis: def2SVP (5D, 7F)
 There are   140 symmetry adapted cartesian basis functions of A   symmetry.
 There are   134 symmetry adapted basis functions of A   symmetry.
   134 basis functions,   220 primitive gaussians,   140 cartesian basis functions
    23 alpha electrons       23 beta electrons
       nuclear repulsion energy       223.8901448593 Hartrees.
 NAtoms=   16 NActive=   16 NUniq=   16 SFac= 1.00D+00 NAtFMM=   60 NAOKFM=F Big=F
 Integral buffers will be    131072 words long.
 Raffenetti 2 integral format.
 Two-electron integral symmetry is turned on.
 Nuclear repulsion after empirical dispersion term =      223.8647128789 Hartrees.
 One-electron integrals computed using PRISM.
   1 Symmetry operations used in ECPInt.
 ECPInt:  NShTT=    2211 NPrTT=    7611 LenC2=    2208 LenP2D=    6478.
 LDataN:  DoStor=T MaxTD1= 4 Len=   56
 NBasis=   134 RedAO= T EigKep=  9.86D-04  NBF=   134
 NBsUse=   134 1.00D-06 EigRej= -1.00D+00 NBFU=   134
 Initial guess from the checkpoint file:  "/tmp/Gau-3243550.chk"
 B after Tr=     0.000000    0.000000    0.000000
         Rot=    1.000000    0.000000    0.000000    0.000000 Ang=   0.00 deg.
 Keep R1 ints in memory in canonical form, NReq=42392737.
 Requested convergence on RMS density matrix=1.00D-08 within 128 cycles.
 Requested convergence on MAX density matrix=1.00D-06.
 Requested convergence on             energy=1.00D-06.
 No special actions if energy rises.
 SCF Done:  E(RB3LYP) =  -234.401786105     A.U. after    1 cycles
            NFock=  1  Conv=0.43D-08     -V/T= 2.0131
 DoSCS=F DFT=T ScalE2(SS,OS)=  1.000000  1.000000
 Range of M.O.s used for correlation:     1   134
 NBasis=   134 NAE=    23 NBE=    23 NFC=     0 NFV=     0
 NROrb=    134 NOA=    23 NOB=    23 NVA=   111 NVB=   111
   1 Symmetry operations used in ECPInt.
 ECPInt:  NShTT=    2211 NPrTT=    7611 LenC2=    2208 LenP2D=    6478.
 LDataN:  DoStor=T MaxTD1= 5 Len=  102
 Symmetrizing basis deriv contribution to polar:
 IMax=3 JMax=2 DiffMx= 0.00D+00
 G2DrvN: will do    17 centers at a time, making    1 passes.
 Calling FoFCou, ICntrl=  3107 FMM=F I1Cent=   0 AccDes= 0.00D+00.
 End of G2Drv F.D. properties file   721 does not exist.
 End of G2Drv F.D. properties file   722 does not exist.
 End of G2Drv F.D. properties file   788 does not exist.
          IDoAtm=1111111111111111
          Differentiating once with respect to electric field.
                with respect to dipole field.
          Differentiating once with respect to nuclear coordinates.
 Keep R1 ints in memory in canonical form, NReq=42317047.
          There are    51 degrees of freedom in the 1st order CPHF.  IDoFFX=6 NUNeed=     3.
     48 vectors produced by pass  0 Test12= 5.01D-15 1.96D-09 XBig12= 1.21D+02 7.27D+00.
 AX will form    48 AO Fock derivatives at one time.
     48 vectors produced by pass  1 Test12= 5.01D-15 1.96D-09 XBig12= 2.41D+01 1.26D+00.
     48 vectors produced by pass  2 Test12= 5.01D-15 1.96D-09 XBig12= 2.31D-01 9.99D-02.
     48 vectors produced by pass  3 Test12= 5.01D-15 1.96D-09 XBig12= 3.45D-04 3.05D-03.
     48 vectors produced by pass  4 Test12= 5.01D-15 1.96D-09 XBig12= 3.94D-07 1.04D-04.
     23 vectors produced by pass  5 Test12= 5.01D-15 1.96D-09 XBig12= 2.95D-10 2.73D-06.
      3 vectors produced by pass  6 Test12= 5.01D-15 1.96D-09 XBig12= 2.26D-13 7.53D-08.
      1 vectors produced by pass  7 Test12= 5.01D-15 1.96D-09 XBig12= 2.30D-16 2.48D-09.
 InvSVY:  IOpt=1 It=  1 EMax= 2.31D-14
 Solved reduced A of dimension   267 with    51 vectors.
 Isotropic polarizability for W=    0.000000       73.02 Bohr**3.
 End of Minotr F.D. properties file   721 does not exist.
 End of Minotr F.D. properties file   722 does not exist.
 End of Minotr F.D. properties file   788 does not exist.

 **********************************************************************

            Population analysis using the SCF density.

 **********************************************************************

 Orbital symmetries:
       Occupied  (A) (A) (A) (A) (A) (A) (A) (A) (A) (A) (A) (A)
                 (A) (A) (A) (A) (A) (A) (A) (A) (A) (A) (A)
       Virtual   (A) (A) (A) (A) (A) (A) (A) (A) (A) (A) (A) (A)
                 (A) (A) (A) (A) (A) (A) (A) (A) (A) (A) (A) (A)
                 (A) (A) (A) (A) (A) (A) (A) (A) (A) (A) (A) (A)
                 (A) (A) (A) (A) (A) (A) (A) (A) (A) (A) (A) (A)
                 (A) (A) (A) (A) (A) (A) (A) (A) (A) (A) (A) (A)
                 (A) (A) (A) (A) (A) (A) (A) (A) (A) (A) (A) (A)
                 (A) (A) (A) (A) (A) (A) (A) (A) (A) (A) (A) (A)
                 (A) (A) (A) (A) (A) (A) (A) (A) (A) (A) (A) (A)
                 (A) (A) (A) (A) (A) (A) (A) (A) (A) (A) (A) (A)
                 (A) (A) (A)
 The electronic state is 1-A.
 Alpha  occ. eigenvalues --  -10.19254 -10.19245 -10.18786 -10.18745 -10.18009
 Alpha  occ. eigenvalues --  -10.17979  -0.79997  -0.73756  -0.70871  -0.61522
 Alpha  occ. eigenvalues --   -0.57286  -0.51276  -0.48958  -0.46296  -0.42864
 Alpha  occ. eigenvalues --   -0.40816  -0.40430  -0.36517  -0.35639  -0.34481
 Alpha  occ. eigenvalues --   -0.34143  -0.23124  -0.22924
 Alpha virt. eigenvalues --   -0.02147   0.00695   0.05944   0.07378   0.09609
 Alpha virt. eigenvalues --    0.10838   0.10842   0.11407   0.13362   0.15116
 Alpha virt. eigenvalues --    0.15981   0.18733   0.21492   0.27651   0.30778
 Alpha virt. eigenvalues --    0.32394   0.36979   0.39257   0.39564   0.42683
 Alpha virt. eigenvalues --    0.46191   0.46740   0.46802   0.47851   0.52926
 Alpha virt. eigenvalues --    0.53926   0.54154   0.56316   0.59943   0.63953
 Alpha virt. eigenvalues --    0.64945   0.65736   0.66172   0.66419   0.67327
 Alpha virt. eigenvalues --    0.68943   0.69159   0.70648   0.71522   0.72242
 Alpha virt. eigenvalues --    0.72557   0.76799   0.78234   0.80401   0.87439
 Alpha virt. eigenvalues --    0.89382   0.93659   0.97206   1.02683   1.07904
 Alpha virt. eigenvalues --    1.20231   1.25390   1.26577   1.28104   1.30046
 Alpha virt. eigenvalues --    1.34449   1.36444   1.41836   1.49348   1.60982
 Alpha virt. eigenvalues --    1.61053   1.63426   1.66093   1.67273   1.69403
 Alpha virt. eigenvalues --    1.71418   1.72823   1.76309   1.77754   1.77845
 Alpha virt. eigenvalues --    1.80249   1.80682   1.81085   1.87364   1.87503
 Alpha virt. eigenvalues --    1.89220   1.89723   1.95454   1.97482   1.98449
 Alpha virt. eigenvalues --    2.05197   2.07129   2.08023   2.14438   2.15466
 Alpha virt. eigenvalues --    2.18510   2.19607   2.20761   2.25539   2.34048
 Alpha virt. eigenvalues --    2.34442   2.38948   2.40131   2.43969   2.45196
 Alpha virt. eigenvalues --    2.50848   2.60791   2.65408   2.69694   2.70851
 Alpha virt. eigenvalues --    2.74437   2.77222   2.80670   2.80788   2.88831
 Alpha virt. eigenvalues --    2.89321   3.03953   3.07510   3.13825   3.24892
 Alpha virt. eigenvalues --    3.42661
          Condensed to atoms (all electrons):
               1          2          3          4          5          6
     1  H    0.687053   0.373280  -0.045297  -0.017690   0.008593  -0.018389
     2  C    0.373280   4.668061   0.376833   0.616777  -0.011760  -0.017685
     3  H   -0.045297   0.376833   0.667710  -0.011758  -0.017211   0.008592
     4  C   -0.017690   0.616777  -0.011758   4.667997   0.376834   0.373260
     5  H    0.008593  -0.011760  -0.017211   0.376834   0.667726  -0.045294
     6  H   -0.018389  -0.017685   0.008592   0.373260  -0.045294   0.687060
     7  H    0.001213  -0.007117  -0.002683   0.003054  -0.000056  -0.000126
     8  C   -0.001826   0.129415  -0.003317  -0.020824   0.000947   0.000162
     9  H   -0.000126   0.003056  -0.000056  -0.007116  -0.002684   0.001210
    10  C    0.003035  -0.044123  -0.002085  -0.003738  -0.000613  -0.003142
    11  H   -0.000205   0.000861   0.001047  -0.000454  -0.000065   0.000036
    12  C   -0.003138  -0.003716  -0.000620  -0.044116  -0.002088   0.003035
    13  H    0.000036  -0.000454  -0.000064   0.000860   0.001049  -0.000206
    14  C    0.000158  -0.020844   0.000949   0.129457  -0.003340  -0.001823
    15  H    0.001561  -0.016858  -0.000017   0.000154   0.001558  -0.008615
    16  H   -0.008611   0.000173   0.001552  -0.016853  -0.000016   0.001557
               7          8          9         10         11         12
     1  H    0.001213  -0.001826  -0.000126   0.003035  -0.000205  -0.003138
     2  C   -0.007117   0.129415   0.003056  -0.044123   0.000861  -0.003716
     3  H   -0.002683  -0.003317  -0.000056  -0.002085   0.001047  -0.000620
     4  C    0.003054  -0.020824  -0.007116  -0.003738  -0.000454  -0.044116
     5  H   -0.000056   0.000947  -0.002684  -0.000613  -0.000065  -0.002088
     6  H   -0.000126   0.000162   0.001210  -0.003142   0.000036   0.003035
     7  H    0.680699   0.373506  -0.000035   0.013934  -0.015066  -0.019891
     8  C    0.373506   4.728208  -0.000088  -0.024823  -0.070227   0.531537
     9  H   -0.000035  -0.000088   0.680709  -0.019878  -0.000316   0.013932
    10  C    0.013934  -0.024823  -0.019878   4.855296  -0.056616   0.394883
    11  H   -0.015066  -0.070227  -0.000316  -0.056616   0.724982   0.420240
    12  C   -0.019891   0.531537   0.013932   0.394883   0.420240   4.855215
    13  H   -0.000316   0.014027  -0.015065   0.420238  -0.015363  -0.056611
    14  C   -0.000089  -0.041276   0.373485   0.531497   0.014029  -0.024825
    15  H   -0.000089   0.020502  -0.045253   0.020526  -0.000203  -0.040425
    16  H   -0.045255   0.349708  -0.000090  -0.040424   0.009524   0.020528
              13         14         15         16
     1  H    0.000036   0.000158   0.001561  -0.008611
     2  C   -0.000454  -0.020844  -0.016858   0.000173
     3  H   -0.000064   0.000949  -0.000017   0.001552
     4  C    0.000860   0.129457   0.000154  -0.016853
     5  H    0.001049  -0.003340   0.001558  -0.000016
     6  H   -0.000206  -0.001823  -0.008615   0.001557
     7  H   -0.000316  -0.000089  -0.000089  -0.045255
     8  C    0.014027  -0.041276   0.020502   0.349708
     9  H   -0.015065   0.373485  -0.045253  -0.000090
    10  C    0.420238   0.531497   0.020526  -0.040424
    11  H   -0.015363   0.014029  -0.000203   0.009524
    12  C   -0.056611  -0.024825  -0.040425   0.020528
    13  H    0.724975  -0.070225   0.009524  -0.000203
    14  C   -0.070225   4.728246   0.349717   0.020512
    15  H    0.009524   0.349717   0.686973  -0.001614
    16  H   -0.000203   0.020512  -0.001614   0.686962
 Mulliken charges:
               1
     1  H    0.020356
     2  C   -0.045898
     3  H    0.026426
     4  C   -0.045841
     5  H    0.026419
     6  H    0.020369
     7  H    0.018318
     8  C    0.014368
     9  H    0.018315
    10  C   -0.043966
    11  H   -0.012204
    12  C   -0.043939
    13  H   -0.012202
    14  C    0.014374
    15  H    0.022558
    16  H    0.022550
 Sum of Mulliken charges =   0.00000
 Mulliken charges with hydrogens summed into heavy atoms:
               1
     2  C    0.000883
     4  C    0.000946
     8  C    0.055236
    10  C   -0.056168
    12  C   -0.056143
    14  C    0.055246
 APT charges:
               1
     1  H    0.013661
     2  C   -0.026876
     3  H    0.002544
     4  C   -0.026746
     5  H    0.002499
     6  H    0.013693
     7  H    0.013480
     8  C    0.052212
     9  H    0.013485
    10  C   -0.075847
    11  H    0.018702
    12  C   -0.075761
    13  H    0.018698
    14  C    0.052280
    15  H    0.001972
    16  H    0.002004
 Sum of APT charges =   0.00000
 APT charges with hydrogens summed into heavy atoms:
               1
     2  C   -0.010671
     4  C   -0.010554
     8  C    0.067697
    10  C   -0.057150
    12  C   -0.057059
    14  C    0.067736
 Electronic spatial extent (au):  <R**2>=            616.0257
 Charge=              0.0000 electrons
 Dipole moment (field-independent basis, Debye):
    X=             -0.4148    Y=              0.0002    Z=              0.0238  Tot=              0.4155
 Quadrupole moment (field-independent basis, Debye-Ang):
   XX=            -41.6047   YY=            -36.4305   ZZ=            -37.3599
   XY=             -0.0017   XZ=             -2.5766   YZ=             -0.0005
 Traceless Quadrupole moment (field-independent basis, Debye-Ang):
   XX=             -3.1396   YY=              2.0345   ZZ=              1.1051
   XY=             -0.0017   XZ=             -2.5766   YZ=             -0.0005
 Octapole moment (field-independent basis, Debye-Ang**2):
  XXX=              0.5842  YYY=              0.0000  ZZZ=              0.2394  XYY=             -1.2117
  XXY=              0.0015  XXZ=             -1.6545  XZZ=             -1.1586  YZZ=             -0.0002
  YYZ=             -1.1549  XYZ=             -0.0001
 Hexadecapole moment (field-independent basis, Debye-Ang**3):
 XXXX=           -437.2680 YYYY=           -320.5395 ZZZZ=           -107.2731 XXXY=             -0.0086
 XXXZ=            -16.8231 YYYX=             -0.0077 YYYZ=              0.0009 ZZZX=             -3.1284
 ZZZY=             -0.0021 XXYY=           -125.0912 XXZZ=            -84.9246 YYZZ=            -73.9454
 XXYZ=             -0.0015 YYXZ=             -4.2566 ZZXY=              0.0004
 N-N= 2.238647128789D+02 E-N=-9.886168827731D+02  KE= 2.313652864016D+02
  Exact polarizability:  81.060  -0.001  83.847  -5.428  -0.002  54.149
 Approx polarizability: 138.710   0.001 141.986  -9.633  -0.006  80.229
   1 Symmetry operations used in ECPInt.
 ECPInt:  NShTT=    2211 NPrTT=    7611 LenC2=    2208 LenP2D=    6478.
 LDataN:  DoStor=T MaxTD1= 6 Len=  172
 Calling FoFJK, ICntrl=    100127 FMM=F ISym2X=0 I1Cent= 0 IOpClX= 0 NMat=1 NMatS=1 NMatT=0.
 Full mass-weighted force constant matrix:
 Low frequencies --- -515.6700  -23.6027  -23.1777  -13.4724   -0.0008   -0.0005
 Low frequencies ---   -0.0004  134.7654  213.5210
 ******    1 imaginary frequencies (negative Signs) ****** 
 Diagonal vibrational polarizability:
        3.0824790       3.0050142       0.9200452
 Harmonic frequencies (cm**-1), IR intensities (KM/Mole), Raman scattering
 activities (A**4/AMU), depolarization ratios for plane and unpolarized
 incident light, reduced masses (AMU), force constants (mDyne/A),
 and normal coordinates:
                      1                      2                      3
                      A                      A                      A
 Frequencies --   -515.6698               134.7200               213.5138
 Red. masses --      8.2758                 2.0742                 4.3128
 Frc consts  --      1.2966                 0.0222                 0.1158
 IR Inten    --      5.8371                 0.6331                 1.4949
  Atom  AN      X      Y      Z        X      Y      Z        X      Y      Z
     1   1    -0.10   0.05  -0.06    -0.05   0.28   0.35    -0.05   0.07  -0.16
     2   6     0.38  -0.10   0.13    -0.08   0.03   0.16    -0.08   0.18  -0.10
     3   1    -0.13   0.03  -0.02    -0.21  -0.22   0.30     0.05   0.27  -0.14
     4   6     0.38   0.10   0.13     0.08   0.03  -0.16     0.08   0.18   0.10
     5   1    -0.13  -0.03  -0.02     0.21  -0.22  -0.30    -0.06   0.27   0.14
     6   1    -0.10  -0.05  -0.06     0.05   0.28  -0.35     0.05   0.07   0.16
     7   1    -0.23   0.10  -0.06     0.08  -0.04  -0.14     0.33  -0.14   0.13
     8   6    -0.36   0.12  -0.11     0.07  -0.05  -0.06     0.24  -0.13   0.10
     9   1    -0.23  -0.10  -0.06    -0.08  -0.04   0.14    -0.33  -0.14  -0.13
    10   6     0.00  -0.07  -0.02    -0.02   0.02   0.04    -0.11  -0.05  -0.06
    11   1     0.10  -0.01   0.10     0.02   0.09  -0.09     0.22  -0.03   0.12
    12   6    -0.01   0.07  -0.02     0.02   0.02  -0.04     0.11  -0.05   0.06
    13   1     0.10   0.01   0.10    -0.02   0.09   0.09    -0.22  -0.03  -0.12
    14   6    -0.36  -0.12  -0.11    -0.07  -0.05   0.06    -0.24  -0.13  -0.10
    15   1     0.17   0.03   0.14    -0.09  -0.12   0.02    -0.02  -0.09  -0.01
    16   1     0.17  -0.03   0.14     0.09  -0.12  -0.02     0.02  -0.09   0.01
                      4                      5                      6
                      A                      A                      A
 Frequencies --    281.2100               375.0580               410.4119
 Red. masses --      2.7073                 2.5113                 2.8087
 Frc consts  --      0.1261                 0.2081                 0.2787
 IR Inten    --      0.2902                 0.2082                 2.7329
  Atom  AN      X      Y      Z        X      Y      Z        X      Y      Z
     1   1     0.01   0.00   0.14    -0.04  -0.01   0.01     0.31   0.03   0.07
     2   6    -0.10   0.00   0.07    -0.08   0.00  -0.01     0.24   0.10   0.07
     3   1    -0.26   0.00   0.05    -0.10  -0.01  -0.01     0.35   0.08   0.10
     4   6    -0.10   0.00   0.07    -0.08   0.00  -0.01    -0.24   0.10  -0.07
     5   1    -0.26   0.00   0.05    -0.10   0.01  -0.01    -0.35   0.08  -0.10
     6   1     0.01   0.00   0.14    -0.04   0.01   0.01    -0.31   0.03  -0.07
     7   1    -0.03  -0.03  -0.27    -0.05   0.19   0.33    -0.12  -0.02  -0.07
     8   6    -0.05  -0.04  -0.16    -0.01   0.22   0.03     0.04  -0.04   0.02
     9   1    -0.03   0.03  -0.27    -0.05  -0.19   0.33     0.12  -0.02   0.07
    10   6     0.16   0.00   0.09     0.10   0.00  -0.05     0.02  -0.06   0.06
    11   1     0.37   0.03   0.22     0.16  -0.12   0.07    -0.15  -0.02  -0.17
    12   6     0.16   0.00   0.09     0.10   0.00  -0.05    -0.02  -0.06  -0.06
    13   1     0.37  -0.03   0.22     0.16   0.12   0.07     0.15  -0.02   0.17
    14   6    -0.05   0.04  -0.16    -0.01  -0.22   0.03    -0.04  -0.04  -0.02
    15   1    -0.15   0.14  -0.16     0.00  -0.47  -0.07    -0.29  -0.08  -0.13
    16   1    -0.15  -0.14  -0.16     0.00   0.47  -0.07     0.29  -0.08   0.13
                      7                      8                      9
                      A                      A                      A
 Frequencies --    490.0134               592.4329               613.3276
 Red. masses --      2.4233                 1.9789                 1.0918
 Frc consts  --      0.3428                 0.4092                 0.2420
 IR Inten    --      0.1547                 0.0003                 1.6132
  Atom  AN      X      Y      Z        X      Y      Z        X      Y      Z
     1   1     0.09   0.06   0.07     0.02   0.00   0.02     0.45   0.06   0.25
     2   6     0.09   0.03   0.05     0.00   0.00   0.00     0.03   0.00  -0.05
     3   1     0.04   0.00   0.06    -0.03   0.00   0.00    -0.46  -0.06  -0.08
     4   6    -0.09   0.03  -0.05     0.00   0.00   0.00     0.03   0.00  -0.05
     5   1    -0.04   0.00  -0.06     0.03   0.00   0.00    -0.46   0.06  -0.08
     6   1    -0.09   0.06  -0.07    -0.02   0.00  -0.02     0.45  -0.06   0.25
     7   1     0.06  -0.03  -0.08    -0.12   0.04   0.34     0.01  -0.01   0.05
     8   6    -0.08  -0.02  -0.09     0.03   0.07  -0.06     0.00   0.00   0.02
     9   1    -0.06  -0.03   0.08     0.12   0.04  -0.34     0.01   0.01   0.05
    10   6    -0.14  -0.01  -0.13    -0.10  -0.11   0.11    -0.02   0.00   0.01
    11   1     0.40  -0.04   0.34     0.20  -0.01  -0.10    -0.05   0.00  -0.01
    12   6     0.14  -0.01   0.13     0.10  -0.11  -0.11    -0.02   0.00   0.01
    13   1    -0.40  -0.04  -0.34    -0.20  -0.01   0.10    -0.05   0.00  -0.01
    14   6     0.08  -0.02   0.09    -0.03   0.07   0.06     0.00   0.00   0.02
    15   1     0.31  -0.08   0.15    -0.08   0.47   0.21    -0.02  -0.02   0.00
    16   1    -0.31  -0.08  -0.15     0.08   0.47  -0.21    -0.02   0.02   0.00
                     10                     11                     12
                      A                      A                      A
 Frequencies --    689.1426               784.2084               805.3719
 Red. masses --      1.2159                 1.4874                 1.1068
 Frc consts  --      0.3402                 0.5389                 0.4230
 IR Inten    --     26.5532                 0.7000                 0.1490
  Atom  AN      X      Y      Z        X      Y      Z        X      Y      Z
     1   1    -0.01   0.01   0.00    -0.11  -0.01  -0.05     0.34  -0.16   0.08
     2   6     0.02   0.00   0.02    -0.03  -0.02  -0.01     0.02   0.04   0.02
     3   1     0.02   0.00   0.01    -0.02   0.02  -0.03     0.34   0.07   0.05
     4   6     0.02   0.00   0.02     0.03  -0.02   0.01     0.02  -0.04   0.02
     5   1     0.02   0.00   0.01     0.02   0.02   0.03     0.33  -0.07   0.05
     6   1    -0.01  -0.01   0.00     0.11  -0.01   0.05     0.34   0.16   0.08
     7   1     0.33  -0.10   0.28    -0.44   0.10  -0.31    -0.27   0.04  -0.07
     8   6     0.00  -0.05  -0.01     0.01   0.04   0.01     0.00   0.01  -0.02
     9   1     0.33   0.10   0.28     0.44   0.10   0.31    -0.27  -0.04  -0.06
    10   6    -0.07   0.00  -0.04    -0.12  -0.03  -0.06    -0.02   0.03   0.01
    11   1     0.37  -0.05   0.29    -0.09   0.02  -0.12    -0.04  -0.02   0.00
    12   6    -0.07   0.00  -0.04     0.12  -0.03   0.06    -0.02  -0.03   0.01
    13   1     0.37   0.05   0.29     0.09   0.02   0.12    -0.04   0.02   0.00
    14   6     0.00   0.05  -0.01    -0.01   0.04  -0.01     0.00  -0.01  -0.02
    15   1    -0.20  -0.11  -0.14    -0.30  -0.12  -0.18    -0.31  -0.14  -0.19
    16   1    -0.20   0.11  -0.14     0.30  -0.12   0.19    -0.31   0.14  -0.19
                     13                     14                     15
                      A                      A                      A
 Frequencies --    842.7499               908.3172               940.8117
 Red. masses --      1.0295                 1.1515                 1.3805
 Frc consts  --      0.4308                 0.5598                 0.7199
 IR Inten    --      0.2653                 9.6415                16.5996
  Atom  AN      X      Y      Z        X      Y      Z        X      Y      Z
     1   1    -0.11   0.42   0.18    -0.34   0.11  -0.14    -0.14   0.03  -0.05
     2   6     0.01   0.01  -0.02     0.06  -0.01   0.02     0.02  -0.01   0.01
     3   1     0.10  -0.43   0.25    -0.33   0.12  -0.11    -0.11   0.04  -0.03
     4   6     0.01  -0.01  -0.02    -0.06  -0.01  -0.02     0.02   0.01   0.01
     5   1     0.10   0.43   0.25     0.33   0.12   0.11    -0.11  -0.04  -0.03
     6   1    -0.11  -0.42   0.18     0.34   0.11   0.14    -0.14  -0.03  -0.05
     7   1    -0.09   0.01  -0.03     0.28  -0.04   0.16    -0.15  -0.13   0.42
     8   6     0.00   0.00  -0.01    -0.04   0.00  -0.01    -0.02  -0.09  -0.03
     9   1    -0.09  -0.01  -0.03    -0.28  -0.04  -0.16    -0.15   0.13   0.42
    10   6     0.00   0.01   0.00    -0.02   0.00  -0.01     0.05   0.06   0.02
    11   1     0.00  -0.01   0.00     0.00   0.03  -0.03    -0.19   0.11  -0.25
    12   6     0.00  -0.01   0.00     0.02   0.00   0.01     0.05  -0.06   0.02
    13   1     0.00   0.01   0.00     0.00   0.03   0.03    -0.19  -0.11  -0.25
    14   6     0.00   0.00  -0.01     0.04   0.00   0.01    -0.02   0.09  -0.03
    15   1    -0.08  -0.03  -0.05    -0.29  -0.06  -0.13     0.00  -0.29  -0.17
    16   1    -0.08   0.03  -0.05     0.29  -0.06   0.13     0.00   0.29  -0.17
                     16                     17                     18
                      A                      A                      A
 Frequencies --    964.7894               983.5854               990.0200
 Red. masses --      1.2207                 1.1103                 1.3640
 Frc consts  --      0.6694                 0.6329                 0.7877
 IR Inten    --      2.8916                 0.2065                 2.3164
  Atom  AN      X      Y      Z        X      Y      Z        X      Y      Z
     1   1     0.00   0.00   0.01     0.44   0.02   0.22    -0.20   0.10  -0.07
     2   6     0.00   0.00   0.01     0.01   0.00  -0.05     0.08  -0.02   0.02
     3   1     0.05  -0.02   0.03    -0.44  -0.03  -0.09    -0.36   0.07  -0.10
     4   6     0.00   0.00   0.01    -0.01   0.00   0.05    -0.08  -0.02  -0.01
     5   1     0.05   0.02   0.03     0.44  -0.03   0.09     0.36   0.07   0.09
     6   1     0.00   0.00   0.01    -0.44   0.02  -0.22     0.19   0.10   0.07
     7   1     0.51   0.02   0.03     0.04  -0.01   0.04    -0.33   0.04  -0.17
     8   6    -0.01   0.06  -0.04     0.00   0.00   0.00     0.07  -0.01   0.05
     9   1     0.51  -0.02   0.03    -0.04  -0.01  -0.04     0.33   0.04   0.17
    10   6     0.01  -0.04   0.05    -0.02   0.00  -0.03     0.03   0.01   0.03
    11   1    -0.33   0.06  -0.19    -0.18   0.00  -0.11     0.09  -0.02   0.07
    12   6     0.01   0.04   0.05     0.02   0.00   0.03    -0.03   0.01  -0.03
    13   1    -0.33  -0.06  -0.19     0.18   0.00   0.11    -0.09  -0.02  -0.07
    14   6    -0.01  -0.05  -0.04     0.00   0.00   0.00    -0.07  -0.01  -0.05
    15   1    -0.26   0.04  -0.10     0.00   0.01   0.00     0.33   0.06   0.13
    16   1    -0.26  -0.04  -0.10     0.00   0.01   0.00    -0.34   0.06  -0.13
                     19                     20                     21
                      A                      A                      A
 Frequencies --    998.1899              1012.4412              1096.3459
 Red. masses --      1.1922                 1.1567                 1.5225
 Frc consts  --      0.6999                 0.6986                 1.0782
 IR Inten    --     27.3749                 6.5882                 0.3623
  Atom  AN      X      Y      Z        X      Y      Z        X      Y      Z
     1   1     0.27  -0.09   0.11     0.17  -0.02   0.07     0.01   0.00   0.01
     2   6    -0.05   0.00  -0.02    -0.01   0.00  -0.02     0.00   0.00   0.00
     3   1     0.31  -0.12   0.10    -0.11  -0.02  -0.03     0.00   0.00   0.00
     4   6    -0.05   0.00  -0.02     0.01   0.00   0.02     0.00   0.00   0.00
     5   1     0.31   0.13   0.10     0.11  -0.02   0.03     0.00   0.00   0.00
     6   1     0.28   0.09   0.11    -0.17  -0.02  -0.07    -0.02  -0.01  -0.01
     7   1     0.15  -0.05   0.19    -0.06   0.03  -0.11    -0.39  -0.13   0.31
     8   6    -0.06  -0.01  -0.04    -0.01   0.02   0.01    -0.03  -0.12   0.00
     9   1     0.15   0.05   0.19     0.06   0.03   0.11     0.39  -0.13  -0.31
    10   6     0.00   0.00   0.02     0.05   0.00   0.05     0.02   0.08  -0.05
    11   1     0.05   0.09  -0.01     0.44  -0.09   0.34     0.13   0.32  -0.01
    12   6     0.00   0.00   0.02    -0.05   0.00  -0.05    -0.02   0.08   0.05
    13   1     0.04  -0.09  -0.01    -0.44  -0.09  -0.34    -0.13   0.32   0.01
    14   6    -0.06   0.01  -0.04     0.01   0.02  -0.01     0.03  -0.12   0.00
    15   1     0.43  -0.01   0.12    -0.28  -0.10  -0.16    -0.21   0.21   0.04
    16   1     0.43   0.01   0.12     0.28  -0.10   0.16     0.21   0.21  -0.04
                     22                     23                     24
                      A                      A                      A
 Frequencies --   1098.7281              1227.4786              1245.5056
 Red. masses --      1.6607                 1.4039                 1.6369
 Frc consts  --      1.1812                 1.2463                 1.4961
 IR Inten    --      2.0473                 0.0616                 0.0556
  Atom  AN      X      Y      Z        X      Y      Z        X      Y      Z
     1   1    -0.08   0.04  -0.03     0.15  -0.46  -0.07    -0.07   0.35   0.07
     2   6     0.01   0.01   0.00    -0.04   0.00   0.13     0.02   0.14   0.00
     3   1    -0.06   0.04  -0.02    -0.10   0.45  -0.15     0.01   0.36  -0.10
     4   6     0.01  -0.01   0.00     0.04   0.00  -0.13     0.02  -0.14   0.00
     5   1    -0.06  -0.04  -0.02     0.10   0.45   0.15     0.01  -0.36  -0.10
     6   1    -0.08  -0.04  -0.03    -0.15  -0.46   0.08    -0.07  -0.35   0.07
     7   1    -0.12   0.06  -0.06     0.00   0.00  -0.01     0.07   0.02  -0.03
     8   6     0.07   0.03  -0.05     0.01   0.00  -0.01     0.01   0.02  -0.06
     9   1    -0.12  -0.06  -0.06     0.00   0.00   0.01     0.07  -0.02  -0.03
    10   6    -0.08  -0.10   0.06     0.01   0.00  -0.01    -0.04   0.03   0.05
    11   1     0.17   0.56  -0.04    -0.05  -0.08   0.04    -0.11  -0.27   0.16
    12   6    -0.08   0.10   0.06    -0.01   0.00   0.01    -0.04  -0.03   0.04
    13   1     0.17  -0.56  -0.04     0.05  -0.08  -0.04    -0.11   0.27   0.16
    14   6     0.07  -0.03  -0.05    -0.01   0.00   0.01     0.01  -0.02  -0.06
    15   1     0.14  -0.24  -0.11    -0.03   0.06   0.03     0.26  -0.11  -0.01
    16   1     0.14   0.24  -0.11     0.03   0.06  -0.03     0.26   0.11  -0.01
                     25                     26                     27
                      A                      A                      A
 Frequencies --   1258.7149              1303.6552              1412.2770
 Red. masses --      1.4078                 1.4495                 1.1820
 Frc consts  --      1.3142                 1.4515                 1.3890
 IR Inten    --      0.7053                 1.7174                 1.2035
  Atom  AN      X      Y      Z        X      Y      Z        X      Y      Z
     1   1     0.07  -0.10   0.00     0.04   0.23   0.11     0.01  -0.01   0.00
     2   6    -0.01   0.00   0.02    -0.01   0.09   0.00     0.00   0.00   0.00
     3   1    -0.02   0.07  -0.02     0.08   0.24  -0.07     0.00   0.00   0.00
     4   6     0.01   0.00  -0.02    -0.01  -0.09   0.00     0.00   0.00   0.00
     5   1     0.02   0.07   0.02     0.08  -0.24  -0.07     0.00   0.00   0.00
     6   1    -0.07  -0.10   0.00     0.04  -0.23   0.11    -0.01  -0.01   0.00
     7   1     0.04  -0.01   0.05     0.02  -0.02   0.10    -0.21  -0.04   0.41
     8   6    -0.06   0.01   0.08    -0.05   0.00   0.06     0.01   0.01  -0.03
     9   1    -0.04  -0.01  -0.05     0.02   0.02   0.10     0.21  -0.04  -0.41
    10   6    -0.05  -0.02   0.07     0.05   0.00  -0.06    -0.04   0.05   0.05
    11   1     0.23   0.44  -0.24     0.20   0.38  -0.21    -0.10  -0.31   0.08
    12   6     0.05  -0.02  -0.07     0.05   0.00  -0.06     0.04   0.05  -0.05
    13   1    -0.24   0.44   0.24     0.20  -0.38  -0.21     0.10  -0.31  -0.08
    14   6     0.06   0.01  -0.08    -0.05   0.00   0.06    -0.01   0.01   0.03
    15   1     0.24  -0.28  -0.14    -0.17   0.24   0.12     0.11  -0.38  -0.11
    16   1    -0.24  -0.28   0.14    -0.17  -0.24   0.12    -0.11  -0.38   0.11
                     28                     29                     30
                      A                      A                      A
 Frequencies --   1441.5474              1478.4215              1532.3004
 Red. masses --      1.1076                 1.4428                 1.6364
 Frc consts  --      1.3562                 1.8580                 2.2638
 IR Inten    --      1.4605                 7.3320                 1.6153
  Atom  AN      X      Y      Z        X      Y      Z        X      Y      Z
     1   1     0.02   0.38   0.31     0.01   0.06   0.06    -0.03  -0.29  -0.31
     2   6    -0.01  -0.07   0.00    -0.01  -0.01   0.00     0.03   0.14   0.01
     3   1     0.19   0.40  -0.24     0.05   0.06  -0.04    -0.21  -0.29   0.23
     4   6     0.01  -0.07   0.00    -0.01   0.01   0.00     0.03  -0.14   0.01
     5   1    -0.19   0.40   0.24     0.05  -0.06  -0.04    -0.21   0.29   0.23
     6   1    -0.02   0.38  -0.31     0.01  -0.06   0.06    -0.03   0.29  -0.31
     7   1     0.00   0.00   0.01    -0.27  -0.03   0.44    -0.04   0.03   0.17
     8   6     0.00   0.00   0.00     0.04   0.01  -0.05     0.02   0.05  -0.04
     9   1     0.00   0.00  -0.01    -0.27   0.03   0.44    -0.04  -0.03   0.17
    10   6     0.00   0.00   0.00     0.00  -0.12   0.00    -0.02   0.07   0.02
    11   1     0.00   0.00   0.00    -0.12  -0.17   0.12     0.06   0.08  -0.02
    12   6     0.00   0.00   0.00     0.00   0.12   0.00    -0.02  -0.07   0.02
    13   1     0.00   0.00   0.00    -0.12   0.17   0.12     0.06  -0.08  -0.02
    14   6     0.00   0.00   0.00     0.04  -0.01  -0.05     0.02  -0.05  -0.04
    15   1     0.01  -0.01   0.00    -0.08   0.36   0.06     0.00   0.24   0.07
    16   1    -0.01  -0.01   0.00    -0.08  -0.36   0.06     0.00  -0.24   0.07
                     31                     32                     33
                      A                      A                      A
 Frequencies --   1600.0526              1600.7991              3141.9260
 Red. masses --      2.7915                 3.4527                 1.0525
 Frc consts  --      4.2107                 5.2129                 6.1217
 IR Inten    --      0.4790                 1.6301                 4.7499
  Atom  AN      X      Y      Z        X      Y      Z        X      Y      Z
     1   1    -0.02   0.00  -0.01    -0.06   0.17   0.20    -0.23  -0.25   0.39
     2   6     0.00   0.00   0.00     0.00  -0.16   0.00     0.02   0.04   0.00
     3   1    -0.01   0.00   0.00     0.08   0.17  -0.20     0.05  -0.20  -0.35
     4   6     0.00   0.00   0.00     0.00   0.16   0.00    -0.02   0.04   0.00
     5   1     0.01   0.00   0.01     0.08  -0.17  -0.20    -0.05  -0.20   0.35
     6   1     0.02   0.00   0.01    -0.06  -0.17   0.20     0.23  -0.25  -0.39
     7   1    -0.14   0.10   0.30    -0.04   0.10   0.18     0.01   0.18   0.02
     8   6     0.11   0.11  -0.11     0.07   0.11  -0.08    -0.01  -0.01   0.01
     9   1     0.14   0.10  -0.30    -0.04  -0.09   0.18    -0.01   0.18  -0.02
    10   6     0.13  -0.12  -0.13    -0.08   0.23   0.06     0.00   0.01  -0.01
    11   1     0.09   0.40  -0.03     0.13   0.19  -0.07     0.06  -0.06  -0.09
    12   6    -0.13  -0.11   0.12    -0.08  -0.23   0.06     0.00   0.01   0.01
    13   1    -0.09   0.40   0.03     0.13  -0.18  -0.07    -0.06  -0.06   0.09
    14   6    -0.11   0.11   0.11     0.07  -0.10  -0.07     0.01  -0.01  -0.01
    15   1     0.04  -0.36  -0.01    -0.04   0.36   0.07    -0.05  -0.06   0.13
    16   1    -0.04  -0.36   0.01    -0.04  -0.37   0.07     0.04  -0.06  -0.13
                     34                     35                     36
                      A                      A                      A
 Frequencies --   3146.4951              3146.7627              3154.3233
 Red. masses --      1.0698                 1.0590                 1.0756
 Frc consts  --      6.2405                 6.1783                 6.3053
 IR Inten    --      0.5492                10.7389                15.2819
  Atom  AN      X      Y      Z        X      Y      Z        X      Y      Z
     1   1    -0.09  -0.09   0.15    -0.04  -0.05   0.07     0.03   0.03  -0.05
     2   6     0.01   0.01   0.00     0.00   0.01   0.00     0.00  -0.01   0.00
     3   1     0.02  -0.08  -0.14     0.01  -0.04  -0.06    -0.01   0.03   0.06
     4   6    -0.01   0.01   0.00     0.00  -0.01   0.00     0.00  -0.01   0.00
     5   1    -0.02  -0.07   0.13     0.01   0.04  -0.07     0.01   0.04  -0.07
     6   1     0.08  -0.09  -0.14    -0.05   0.06   0.08    -0.04   0.04   0.06
     7   1    -0.02  -0.31  -0.04     0.03   0.52   0.06     0.02   0.39   0.05
     8   6     0.01   0.02  -0.01    -0.02  -0.03   0.03    -0.01  -0.02   0.03
     9   1     0.02  -0.36   0.04     0.03  -0.49   0.06    -0.02   0.39  -0.05
    10   6    -0.02  -0.02   0.03    -0.01  -0.01   0.01    -0.02  -0.01   0.03
    11   1    -0.26   0.24   0.37     0.11  -0.10  -0.16    -0.22   0.20   0.32
    12   6     0.02  -0.02  -0.03    -0.01   0.01   0.01     0.02  -0.01  -0.03
    13   1     0.27   0.25  -0.39     0.08   0.08  -0.12     0.22   0.20  -0.32
    14   6    -0.01   0.02   0.01    -0.01   0.03   0.03     0.01  -0.02  -0.03
    15   1     0.07   0.09  -0.20     0.13   0.16  -0.36    -0.11  -0.14   0.32
    16   1    -0.06   0.07   0.17     0.13  -0.16  -0.38     0.11  -0.14  -0.32
                     37                     38                     39
                      A                      A                      A
 Frequencies --   3154.9982              3168.3116              3233.5376
 Red. masses --      1.0654                 1.0945                 1.1167
 Frc consts  --      6.2483                 6.4730                 6.8794
 IR Inten    --      3.3779                13.1961                 0.3868
  Atom  AN      X      Y      Z        X      Y      Z        X      Y      Z
     1   1     0.24   0.26  -0.40     0.00   0.00   0.00    -0.19  -0.21   0.30
     2   6    -0.02  -0.05   0.00     0.00   0.00   0.00     0.02  -0.01  -0.06
     3   1    -0.05   0.21   0.38     0.00   0.00   0.01    -0.06   0.27   0.46
     4   6    -0.02   0.05   0.00     0.00   0.00   0.00    -0.02  -0.01   0.06
     5   1    -0.05  -0.21   0.38     0.00   0.00   0.01     0.06   0.27  -0.46
     6   1     0.24  -0.26  -0.40     0.00   0.00   0.00     0.19  -0.21  -0.30
     7   1     0.00   0.11   0.01     0.01   0.11   0.01    -0.01  -0.13  -0.01
     8   6     0.00  -0.01   0.00    -0.01  -0.01   0.01     0.00   0.02   0.01
     9   1     0.00  -0.10   0.01     0.01  -0.11   0.01     0.01  -0.13   0.01
    10   6     0.00   0.00   0.00     0.03   0.03  -0.04     0.00   0.00   0.00
    11   1     0.02  -0.02  -0.03    -0.34   0.32   0.49     0.01  -0.01  -0.01
    12   6     0.00   0.00   0.00     0.03  -0.03  -0.04     0.00   0.00   0.00
    13   1     0.02   0.02  -0.03    -0.34  -0.32   0.49    -0.01  -0.01   0.02
    14   6     0.00   0.01   0.00    -0.01   0.01   0.01     0.00   0.02  -0.01
    15   1     0.02   0.02  -0.06     0.06   0.07  -0.16    -0.05  -0.05   0.13
    16   1     0.02  -0.03  -0.06     0.06  -0.07  -0.16     0.05  -0.05  -0.13
                     40                     41                     42
                      A                      A                      A
 Frequencies --   3238.8806              3242.5859              3254.8513
 Red. masses --      1.1163                 1.1160                 1.1179
 Frc consts  --      6.8993                 6.9134                 6.9779
 IR Inten    --      3.7832                 9.5243                10.2584
  Atom  AN      X      Y      Z        X      Y      Z        X      Y      Z
     1   1     0.02   0.02  -0.03     0.06   0.07  -0.10    -0.20  -0.22   0.33
     2   6     0.00   0.00   0.01    -0.01   0.00   0.02     0.02   0.00  -0.07
     3   1     0.01  -0.04  -0.06     0.02  -0.07  -0.13    -0.06   0.27   0.46
     4   6     0.00   0.00   0.01     0.01   0.00  -0.02     0.02   0.00  -0.07
     5   1     0.01   0.04  -0.06    -0.02  -0.08   0.13    -0.06  -0.27   0.46
     6   1     0.02  -0.02  -0.03    -0.06   0.07   0.10    -0.20   0.22   0.32
     7   1     0.03   0.45   0.05    -0.03  -0.42  -0.04     0.00   0.05   0.00
     8   6     0.01  -0.05  -0.04    -0.01   0.05   0.04     0.00  -0.01   0.00
     9   1     0.03  -0.46   0.05     0.03  -0.41   0.04     0.00  -0.05   0.00
    10   6     0.00   0.00   0.00     0.00   0.00   0.00     0.00   0.00   0.00
    11   1    -0.04   0.03   0.05     0.03  -0.03  -0.05     0.00   0.00   0.00
    12   6     0.00   0.00   0.00     0.00   0.00   0.00     0.00   0.00   0.00
    13   1    -0.04  -0.03   0.05    -0.03  -0.03   0.04     0.00   0.00   0.00
    14   6     0.01   0.05  -0.04     0.01   0.05  -0.04     0.00   0.01   0.00
    15   1    -0.17  -0.19   0.47    -0.16  -0.19   0.46    -0.02  -0.02   0.06
    16   1    -0.16   0.18   0.46     0.17  -0.19  -0.47    -0.02   0.02   0.06

 -------------------
 - Thermochemistry -
 -------------------
 Temperature   298.150 Kelvin.  Pressure   1.00000 Atm.
 Atom     1 has atomic number  1 and mass   1.00783
 Atom     2 has atomic number  6 and mass  12.00000
 Atom     3 has atomic number  1 and mass   1.00783
 Atom     4 has atomic number  6 and mass  12.00000
 Atom     5 has atomic number  1 and mass   1.00783
 Atom     6 has atomic number  1 and mass   1.00783
 Atom     7 has atomic number  1 and mass   1.00783
 Atom     8 has atomic number  6 and mass  12.00000
 Atom     9 has atomic number  1 and mass   1.00783
 Atom    10 has atomic number  6 and mass  12.00000
 Atom    11 has atomic number  1 and mass   1.00783
 Atom    12 has atomic number  6 and mass  12.00000
 Atom    13 has atomic number  1 and mass   1.00783
 Atom    14 has atomic number  6 and mass  12.00000
 Atom    15 has atomic number  1 and mass   1.00783
 Atom    16 has atomic number  1 and mass   1.00783
 Molecular mass:    82.07825 amu.
 Principal axes and moments of inertia in atomic units:
                           1         2         3
     Eigenvalues --   416.74653 520.39155 796.91010
           X            0.99975  -0.00006  -0.02216
           Y            0.00006   1.00000  -0.00001
           Z            0.02216   0.00001   0.99975
 This molecule is an asymmetric top.
 Rotational symmetry number  1.
 Rotational temperatures (Kelvin)      0.20783     0.16644     0.10869
 Rotational constants (GHZ):           4.33055     3.46804     2.26467
    1 imaginary frequencies ignored.
 Zero-point vibrational energy     366110.0 (Joules/Mol)
                                   87.50239 (Kcal/Mol)
 Warning -- explicit consideration of   8 degrees of freedom as
           vibrations may cause significant error
 Vibrational temperatures:    193.83   307.20   404.60   539.62   590.49
          (Kelvin)            705.02   852.38   882.44   991.52  1128.30
                             1158.75  1212.53  1306.86  1353.62  1388.12
                             1415.16  1424.42  1436.17  1456.68  1577.40
                             1580.82  1766.07  1792.00  1811.01  1875.67
                             2031.95  2074.06  2127.12  2204.64  2302.12
                             2303.19  4520.53  4527.10  4527.48  4538.36
                             4539.33  4558.49  4652.33  4660.02  4665.35
                             4683.00
 
 Zero-point correction=                           0.139444 (Hartree/Particle)
 Thermal correction to Energy=                    0.145881
 Thermal correction to Enthalpy=                  0.146825
 Thermal correction to Gibbs Free Energy=         0.109888
 Sum of electronic and zero-point Energies=           -234.262342
 Sum of electronic and thermal Energies=              -234.255905
 Sum of electronic and thermal Enthalpies=            -234.254961
 Sum of electronic and thermal Free Energies=         -234.291898
 
                     E (Thermal)             CV                S
                      KCal/Mol        Cal/Mol-Kelvin    Cal/Mol-Kelvin
 Total                   91.542             25.027             77.741
 Electronic               0.000              0.000              0.000
 Translational            0.889              2.981             39.129
 Rotational               0.889              2.981             26.649
 Vibrational             89.764             19.065             11.962
 Vibration     1          0.613              1.919              2.878
 Vibration     2          0.644              1.820              2.013
 Vibration     3          0.681              1.708              1.526
 Vibration     4          0.746              1.523              1.059
 Vibration     5          0.775              1.448              0.925
 Vibration     6          0.846              1.272              0.684
 Vibration     7          0.950              1.048              0.463
 Vibration     8          0.973              1.004              0.427
                       Q            Log10(Q)             Ln(Q)
 Total Bot       0.285308D-50        -50.544686       -116.383440
 Total V=0       0.393492D+14         13.594936         31.303498
 Vib (Bot)       0.655941D-63        -63.183135       -145.484546
 Vib (Bot)    1  0.151143D+01          0.179389          0.413057
 Vib (Bot)    2  0.928907D+00         -0.032028         -0.073746
 Vib (Bot)    3  0.683258D+00         -0.165415         -0.380883
 Vib (Bot)    4  0.483733D+00         -0.315395         -0.726223
 Vib (Bot)    5  0.430952D+00         -0.365571         -0.841759
 Vib (Bot)    6  0.338366D+00         -0.470613         -1.083626
 Vib (Bot)    7  0.254005D+00         -0.595158         -1.370403
 Vib (Bot)    8  0.240116D+00         -0.619580         -1.426635
 Vib (V=0)       0.904663D+01          0.956487          2.202392
 Vib (V=0)    1  0.209199D+01          0.320559          0.738115
 Vib (V=0)    2  0.155493D+01          0.191710          0.441428
 Vib (V=0)    3  0.134666D+01          0.129259          0.297631
 Vib (V=0)    4  0.119570D+01          0.077622          0.178731
 Vib (V=0)    5  0.116009D+01          0.064492          0.148498
 Vib (V=0)    6  0.110373D+01          0.042863          0.098697
 Vib (V=0)    7  0.106082D+01          0.025641          0.059042
 Vib (V=0)    8  0.105467D+01          0.023115          0.053225
 Electronic      0.100000D+01          0.000000          0.000000
 Translational   0.292279D+08          7.465797         17.190634
 Rotational      0.148817D+06          5.172652         11.910472
 ***** Axes restored to original set *****
 -------------------------------------------------------------------
 Center     Atomic                   Forces (Hartrees/Bohr)
 Number     Number              X              Y              Z
 -------------------------------------------------------------------
      1        1          -0.000005602    0.000000335   -0.000000440
      2        6           0.000002116    0.000015221    0.000003524
      3        1           0.000002774    0.000000764   -0.000000053
      4        6          -0.000005373   -0.000016164    0.000000001
      5        1          -0.000005298    0.000003884   -0.000001342
      6        1           0.000004980   -0.000003073   -0.000001221
      7        1          -0.000000205   -0.000000102    0.000000232
      8        6          -0.000001538   -0.000003296   -0.000002368
      9        1           0.000003873   -0.000000993    0.000004832
     10        6           0.000000147    0.000021124   -0.000008476
     11        1          -0.000000173    0.000000916    0.000000209
     12        6           0.000012511   -0.000011107   -0.000001632
     13        1          -0.000000341   -0.000004399    0.000004175
     14        6          -0.000011675   -0.000004014    0.000002835
     15        1           0.000005354    0.000000339    0.000000674
     16        1          -0.000001550    0.000000566   -0.000000950
 -------------------------------------------------------------------
 Cartesian Forces:  Max     0.000021124 RMS     0.000006037
 FormGI is forming the generalized inverse of G from B-inverse, IUseBI=4.

 GradGradGradGradGradGradGradGradGradGradGradGradGradGradGradGradGradGrad
 Berny optimization.
 Internal  Forces:  Max     0.000024058 RMS     0.000006193
 Search for a saddle point.
 Step number   1 out of a maximum of    2
 All quantities printed in internal units (Hartrees-Bohrs-Radians)
 Swapping is turned off.
 Second derivative matrix not updated -- analytic derivatives used.
 ITU=  0
     Eigenvalues ---   -0.09581   0.00293   0.01184   0.01574   0.02022
     Eigenvalues ---    0.02103   0.02602   0.02987   0.03297   0.03511
     Eigenvalues ---    0.03778   0.03984   0.05014   0.05303   0.05837
     Eigenvalues ---    0.06274   0.07885   0.10165   0.10859   0.11259
     Eigenvalues ---    0.11941   0.13292   0.13489   0.14385   0.17613
     Eigenvalues ---    0.25460   0.26198   0.35075   0.35352   0.35783
     Eigenvalues ---    0.35814   0.35863   0.35868   0.36209   0.36274
     Eigenvalues ---    0.36336   0.36505   0.40975   0.48940   0.53685
     Eigenvalues ---    0.66697   0.70196
 Eigenvectors required to have negative eigenvalues:
                          R6        D18       D1        D5        D19
   1                    0.55267   0.30888  -0.24851   0.24453   0.22204
                          R3        D3        R8        D26       R11
   1                   -0.21304  -0.17970  -0.16701  -0.16624   0.16142
 Angle between quadratic step and forces=  77.08 degrees.
 Linear search not attempted -- option 19 set.
 Iteration  1 RMS(Cart)=  0.00027034 RMS(Int)=  0.00000003
 Iteration  2 RMS(Cart)=  0.00000005 RMS(Int)=  0.00000000
 Variable       Old X    -DE/DX   Delta X   Delta X   Delta X     New X
                                 (Linear)    (Quad)   (Total)
    R1        2.06429   0.00000   0.00000   0.00000   0.00000   2.06429
    R2        2.06111   0.00000   0.00000   0.00000   0.00000   2.06112
    R3        2.61922  -0.00001   0.00000  -0.00003  -0.00003   2.61919
    R4        2.06113   0.00000   0.00000  -0.00001  -0.00001   2.06112
    R5        2.06429   0.00000   0.00000   0.00000   0.00000   2.06429
    R6        4.29211  -0.00001   0.00000   0.00031   0.00031   4.29242
    R7        2.06609   0.00000   0.00000   0.00000   0.00000   2.06609
    R8        2.61412   0.00000   0.00000   0.00001   0.00001   2.61413
    R9        2.06000   0.00000   0.00000   0.00001   0.00001   2.06001
   R10        2.06609   0.00000   0.00000   0.00000   0.00000   2.06609
   R11        2.66174   0.00001   0.00000   0.00002   0.00002   2.66176
   R12        2.06934   0.00000   0.00000   0.00000   0.00000   2.06934
   R13        2.61415  -0.00001   0.00000  -0.00002  -0.00002   2.61413
   R14        2.06934   0.00000   0.00000   0.00000   0.00000   2.06934
   R15        2.06002   0.00000   0.00000  -0.00001  -0.00001   2.06001
    A1        2.01449   0.00000   0.00000  -0.00001  -0.00001   2.01449
    A2        2.09364   0.00000   0.00000  -0.00002  -0.00002   2.09362
    A3        2.09513   0.00000   0.00000  -0.00002  -0.00002   2.09511
    A4        2.09507   0.00000   0.00000   0.00005   0.00005   2.09511
    A5        2.09363   0.00000   0.00000   0.00000   0.00000   2.09362
    A6        1.90355  -0.00001   0.00000  -0.00003  -0.00003   1.90352
    A7        2.01449   0.00000   0.00000  -0.00001  -0.00001   2.01449
    A8        1.59082   0.00000   0.00000  -0.00025  -0.00025   1.59057
    A9        1.57979   0.00001   0.00000   0.00019   0.00019   1.57998
   A10        2.09640   0.00000   0.00000  -0.00002  -0.00002   2.09639
   A11        2.00555   0.00000   0.00000  -0.00001  -0.00001   2.00554
   A12        2.10405   0.00000   0.00000  -0.00001  -0.00001   2.10403
   A13        2.05899   0.00000   0.00000  -0.00006  -0.00006   2.05893
   A14        2.12725  -0.00002   0.00000   0.00000   0.00000   2.12725
   A15        2.07374   0.00001   0.00000   0.00005   0.00005   2.07379
   A16        2.12723   0.00000   0.00000   0.00002   0.00002   2.12725
   A17        2.07379   0.00000   0.00000   0.00000   0.00000   2.07379
   A18        2.05894   0.00000   0.00000  -0.00001  -0.00001   2.05893
   A19        1.81639   0.00001   0.00000  -0.00001  -0.00001   1.81638
   A20        1.77619  -0.00002   0.00000  -0.00001  -0.00001   1.77618
   A21        1.47788   0.00000   0.00000  -0.00017  -0.00017   1.47771
   A22        2.09642   0.00001   0.00000  -0.00003  -0.00003   2.09639
   A23        2.00550   0.00000   0.00000   0.00004   0.00004   2.00554
   A24        2.10397   0.00000   0.00000   0.00007   0.00007   2.10404
    D1       -2.70373  -0.00001   0.00000   0.00007   0.00007  -2.70367
    D2       -0.00014   0.00000   0.00000   0.00016   0.00016   0.00002
    D3        1.78241   0.00000   0.00000   0.00038   0.00038   1.78278
    D4        0.00007  -0.00001   0.00000  -0.00006  -0.00006   0.00001
    D5        2.70366   0.00000   0.00000   0.00004   0.00004   2.70370
    D6       -1.79698   0.00000   0.00000   0.00025   0.00025  -1.79672
    D7        3.06330  -0.00001   0.00000  -0.00049  -0.00049   3.06281
    D8        0.87304   0.00000   0.00000  -0.00045  -0.00045   0.87259
    D9       -1.22368   0.00000   0.00000  -0.00049  -0.00049  -1.22417
   D10        0.92603   0.00000   0.00000  -0.00043  -0.00043   0.92559
   D11       -1.26423   0.00000   0.00000  -0.00039  -0.00039  -1.26462
   D12        2.92223   0.00000   0.00000  -0.00043  -0.00043   2.92180
   D13       -1.08878   0.00000   0.00000  -0.00043  -0.00043  -1.08921
   D14        3.00415   0.00000   0.00000  -0.00038  -0.00038   3.00376
   D15        0.90742   0.00000   0.00000  -0.00042  -0.00042   0.90700
   D16        3.01192   0.00000   0.00000   0.00008   0.00008   3.01199
   D17        0.10494   0.00000   0.00000   0.00005   0.00005   0.10499
   D18       -0.56247   0.00000   0.00000  -0.00002  -0.00002  -0.56249
   D19        2.81374   0.00000   0.00000  -0.00005  -0.00005   2.81369
   D20       -2.90893   0.00000   0.00000   0.00003   0.00003  -2.90891
   D21       -0.00005   0.00000   0.00000   0.00006   0.00006   0.00001
   D22        0.00004  -0.00001   0.00000  -0.00003  -0.00003   0.00001
   D23        2.90892   0.00000   0.00000   0.00000   0.00000   2.90893
   D24       -1.02119   0.00001   0.00000   0.00017   0.00017  -1.02102
   D25       -3.01219   0.00001   0.00000   0.00020   0.00020  -3.01199
   D26        0.56251   0.00000   0.00000  -0.00002  -0.00002   0.56249
   D27        1.88589   0.00000   0.00000   0.00010   0.00010   1.88599
   D28       -0.10512   0.00000   0.00000   0.00014   0.00014  -0.10498
   D29       -2.81360  -0.00001   0.00000  -0.00009  -0.00009  -2.81369
         Item               Value     Threshold  Converged?
 Maximum Force            0.000024     0.000450     YES
 RMS     Force            0.000006     0.000300     YES
 Maximum Displacement     0.000808     0.001800     YES
 RMS     Displacement     0.000270     0.001200     YES
 Predicted change in Energy=-8.718138D-09
 Optimization completed.
    -- Stationary point found.
                           ----------------------------
                           !   Optimized Parameters   !
                           ! (Angstroms and Degrees)  !
 --------------------------                            --------------------------
 ! Name  Definition              Value          Derivative Info.                !
 --------------------------------------------------------------------------------
 ! R1    R(1,2)                  1.0924         -DE/DX =    0.0                 !
 ! R2    R(2,3)                  1.0907         -DE/DX =    0.0                 !
 ! R3    R(2,4)                  1.386          -DE/DX =    0.0                 !
 ! R4    R(4,5)                  1.0907         -DE/DX =    0.0                 !
 ! R5    R(4,6)                  1.0924         -DE/DX =    0.0                 !
 ! R6    R(4,14)                 2.2713         -DE/DX =    0.0                 !
 ! R7    R(7,8)                  1.0933         -DE/DX =    0.0                 !
 ! R8    R(8,12)                 1.3833         -DE/DX =    0.0                 !
 ! R9    R(8,16)                 1.0901         -DE/DX =    0.0                 !
 ! R10   R(9,14)                 1.0933         -DE/DX =    0.0                 !
 ! R11   R(10,12)                1.4085         -DE/DX =    0.0                 !
 ! R12   R(10,13)                1.095          -DE/DX =    0.0                 !
 ! R13   R(10,14)                1.3833         -DE/DX =    0.0                 !
 ! R14   R(11,12)                1.095          -DE/DX =    0.0                 !
 ! R15   R(14,15)                1.0901         -DE/DX =    0.0                 !
 ! A1    A(1,2,3)              115.4219         -DE/DX =    0.0                 !
 ! A2    A(1,2,4)              119.9567         -DE/DX =    0.0                 !
 ! A3    A(3,2,4)              120.0424         -DE/DX =    0.0                 !
 ! A4    A(2,4,5)              120.0384         -DE/DX =    0.0                 !
 ! A5    A(2,4,6)              119.956          -DE/DX =    0.0                 !
 ! A6    A(2,4,14)             109.0656         -DE/DX =    0.0                 !
 ! A7    A(5,4,6)              115.4221         -DE/DX =    0.0                 !
 ! A8    A(5,4,14)              91.1474         -DE/DX =    0.0                 !
 ! A9    A(6,4,14)              90.5156         -DE/DX =    0.0                 !
 ! A10   A(7,8,12)             120.115          -DE/DX =    0.0                 !
 ! A11   A(7,8,16)             114.9095         -DE/DX =    0.0                 !
 ! A12   A(12,8,16)            120.553          -DE/DX =    0.0                 !
 ! A13   A(12,10,13)           117.9713         -DE/DX =    0.0                 !
 ! A14   A(12,10,14)           121.8824         -DE/DX =    0.0                 !
 ! A15   A(13,10,14)           118.8167         -DE/DX =    0.0                 !
 ! A16   A(8,12,10)            121.8813         -DE/DX =    0.0                 !
 ! A17   A(8,12,11)            118.8193         -DE/DX =    0.0                 !
 ! A18   A(10,12,11)           117.9688         -DE/DX =    0.0                 !
 ! A19   A(4,14,9)             104.0713         -DE/DX =    0.0                 !
 ! A20   A(4,14,10)            101.7682         -DE/DX =    0.0                 !
 ! A21   A(4,14,15)             84.6762         -DE/DX =    0.0                 !
 ! A22   A(9,14,10)            120.1158         -DE/DX =    0.0                 !
 ! A23   A(9,14,15)            114.9066         -DE/DX =    0.0                 !
 ! A24   A(10,14,15)           120.5486         -DE/DX =    0.0                 !
 ! D1    D(1,2,4,5)           -154.9126         -DE/DX =    0.0                 !
 ! D2    D(1,2,4,6)             -0.008          -DE/DX =    0.0                 !
 ! D3    D(1,2,4,14)           102.1244         -DE/DX =    0.0                 !
 ! D4    D(3,2,4,5)              0.0039         -DE/DX =    0.0                 !
 ! D5    D(3,2,4,6)            154.9085         -DE/DX =    0.0                 !
 ! D6    D(3,2,4,14)          -102.9591         -DE/DX =    0.0                 !
 ! D7    D(2,4,14,9)           175.5141         -DE/DX =    0.0                 !
 ! D8    D(2,4,14,10)           50.0217         -DE/DX =    0.0                 !
 ! D9    D(2,4,14,15)          -70.1118         -DE/DX =    0.0                 !
 ! D10   D(5,4,14,9)            53.0574         -DE/DX =    0.0                 !
 ! D11   D(5,4,14,10)          -72.435          -DE/DX =    0.0                 !
 ! D12   D(5,4,14,15)          167.4314         -DE/DX =    0.0                 !
 ! D13   D(6,4,14,9)           -62.3827         -DE/DX =    0.0                 !
 ! D14   D(6,4,14,10)          172.1249         -DE/DX =    0.0                 !
 ! D15   D(6,4,14,15)           51.9914         -DE/DX =    0.0                 !
 ! D16   D(7,8,12,10)          172.5701         -DE/DX =    0.0                 !
 ! D17   D(7,8,12,11)            6.0128         -DE/DX =    0.0                 !
 ! D18   D(16,8,12,10)         -32.2272         -DE/DX =    0.0                 !
 ! D19   D(16,8,12,11)         161.2154         -DE/DX =    0.0                 !
 ! D20   D(13,10,12,8)        -166.6696         -DE/DX =    0.0                 !
 ! D21   D(13,10,12,11)         -0.0028         -DE/DX =    0.0                 !
 ! D22   D(14,10,12,8)           0.0023         -DE/DX =    0.0                 !
 ! D23   D(14,10,12,11)        166.6691         -DE/DX =    0.0                 !
 ! D24   D(12,10,14,4)         -58.5099         -DE/DX =    0.0                 !
 ! D25   D(12,10,14,9)        -172.5858         -DE/DX =    0.0                 !
 ! D26   D(12,10,14,15)         32.2294         -DE/DX =    0.0                 !
 ! D27   D(13,10,14,4)         108.0533         -DE/DX =    0.0                 !
 ! D28   D(13,10,14,9)          -6.0227         -DE/DX =    0.0                 !
 ! D29   D(13,10,14,15)       -161.2074         -DE/DX =    0.0                 !
 --------------------------------------------------------------------------------
 GradGradGradGradGradGradGradGradGradGradGradGradGradGradGradGradGradGrad

 1\1\GINC-GAU-XTB--51D3FDB9B383-UYR6JPG3PH\Freq\RB3LYP\def2SVP\C6H10\RO
 OT\16-Jun-2026\0\\#N Geom=AllCheck Guess=TCheck SCRF=Check GenChk RB3L
 YP/def2SVP Freq\\Generated by UniTS\\0,1\H,0.8340047252,-1.840302958,-
 1.2541216612\C,1.0709432569,-1.1407956056,-0.4492434289\H,1.3956884654
 ,-1.5967250277,0.4868562829\C,1.4357813054,0.1621616959,-0.7497013813\
 H,2.0480507823,0.732791435,-0.050318685\H,1.4861297816,0.4881611936,-1
 .7910795908\H,-1.2687928601,-2.204398546,0.5295677911\C,-1.0941370784,
 -1.1652458698,0.237984669\H,0.0583346108,2.5349718226,-0.5652249843\C,
 -0.7270575391,1.1580266381,0.8887169256\H,-1.1782849743,-0.4459674243,
 2.2501285498\C,-1.0978880973,-0.1659530392,1.1945466072\H,-0.537072552
 6,1.8435332688,1.7212496409\C,-0.3386354415,1.5323006982,-0.3851362513
 \H,-0.7663154879,1.0437490429,-1.2607848826\H,-1.3207468964,-0.9363063
 245,-0.803438601\\Version=ES64L-G09RevD.01\State=1-A\HF=-234.4017861\R
 MSD=4.267e-09\RMSF=6.037e-06\ZeroPoint=0.1394439\Thermal=0.1458807\Dip
 ole=0.1189405,-0.0556407,-0.0973562\DipoleDeriv=0.0820077,0.0174666,-0
 .0254205,0.0000582,-0.0308943,-0.0462685,-0.0396682,-0.05995,-0.010131
 2,-0.132476,0.1031873,0.0856498,0.0074934,0.000327,0.0141093,0.0180455
 ,-0.0708492,0.0515219,0.0444136,0.0147279,-0.0327457,0.0302438,-0.0044
 845,0.0126346,-0.0279469,0.0410879,-0.0322964,-0.1309937,0.0249372,0.0
 854505,0.0939174,0.0153329,-0.0543112,0.0367235,0.0634204,0.0354232,0.
 0031817,-0.0404918,-0.0242721,-0.0558569,0.0153405,-0.0072288,-0.02836
 23,-0.0359284,-0.0110247,0.045282,-0.050832,0.0170042,-0.039315,0.0532
 701,0.0295327,0.0057273,0.0503346,-0.0574729,0.0564517,-0.077829,0.017
 4562,-0.0380259,-0.0641502,0.01683,0.0032307,0.0439641,0.0481395,0.051
 1681,0.02776,-0.0558009,-0.0435925,0.0579288,0.0004129,-0.0344073,0.00
 20885,0.0475391,0.074817,-0.0053174,0.0064122,-0.0503145,-0.0831113,0.
 0417266,-0.0016469,0.0208366,0.0487494,-0.1893395,0.2474198,0.0018047,
 0.0355299,-0.034733,0.0750594,0.1148796,0.0750869,-0.0034698,0.1208482
 ,0.0009519,-0.0123136,-0.0233112,0.0396427,0.0400264,0.0369757,0.03500
 63,-0.1043851,-0.2664837,-0.1149642,0.0456813,0.1230561,-0.0305741,-0.
 0679032,0.0458938,-0.0995659,0.0697756,0.1057154,-0.065248,-0.030678,-
 0.0225889,-0.0014382,-0.0707266,-0.0003111,-0.0880013,-0.0481845,0.050
 5481,-0.0446356,-0.0334843,0.0284261,0.0660614,0.0182851,-0.0471176,0.
 0141585,0.0402292,0.0403412,-0.0108659,-0.040725,-0.042089,-0.0142757,
 -0.0568075,-0.0416565,-0.0105726,-0.0201501,0.0445182,-0.0262669,-0.00
 40187,-0.0036309,0.0157578,0.0546288,-0.0403592,0.0188838,-0.0542632\P
 olar=66.9592035,1.3687867,83.5870562,-14.5575608,0.5354889,68.5090713\
 PG=C01 [X(C6H10)]\NImag=1\\0.04584857,0.04798732,0.17444127,0.05654890
 ,0.14331827,0.21649411,-0.03418213,-0.04370496,-0.05799251,0.13169803,
 -0.03423776,-0.16795986,-0.13750934,0.06673635,0.68540576,-0.05640265,
 -0.13186469,-0.21296820,0.16025510,-0.02810230,0.60066679,-0.00118803,
 0.00209535,-0.00301814,-0.04865768,0.03984113,-0.08994498,0.05753338,-
 0.00669044,0.00938612,-0.01569458,0.02991152,-0.10264431,0.10217193,-0
 .03233571,0.10335627,-0.00494188,0.01024372,-0.01286840,-0.08615811,0.
 10170655,-0.27017034,0.08438432,-0.11257030,0.28137743,0.00152433,-0.0
 0796483,0.00238571,-0.09680580,-0.12279080,0.01363016,0.00604713,0.007
 12133,-0.00201354,0.25122037,-0.01379780,-0.01226695,0.00849180,-0.037
 03920,-0.35207151,0.04678640,-0.01176900,-0.00603912,0.00330476,0.2597
 1465,0.53927342,-0.00527428,-0.02254143,0.00810858,0.00150292,0.074119
 76,-0.11699120,0.00845329,0.02631794,-0.00187373,0.09486508,-0.0688115
 4,0.62724671,0.00500083,-0.00126875,-0.00045415,0.00391917,0.00204626,
 -0.00799131,-0.00373326,0.00118465,0.00182244,-0.12334493,-0.10603442,
 -0.11211417,0.12856517,-0.00444879,-0.00343763,0.00238155,-0.01670487,
 -0.01471757,-0.01903082,0.00265130,0.00099735,-0.00095309,-0.09544040,
 -0.11898629,-0.09337980,0.09868526,0.13350122,-0.00073824,0.00175354,0
 .00101117,0.00306531,0.00382047,0.00892619,0.00162929,-0.00043555,0.00
 077892,-0.11302767,-0.09371711,-0.17913956,0.11657493,0.10332449,0.180
 19594,-0.00454606,0.00128475,0.00120346,0.00802035,0.00406240,0.005479
 84,0.00496733,-0.00155584,-0.00145780,-0.03207581,-0.02510402,0.006937
 93,0.00273615,0.00615094,-0.01502809,0.03359198,0.00271699,0.00101593,
 -0.00072358,-0.00165646,-0.00879487,0.02978749,-0.00439294,-0.00385562
 ,0.00166057,-0.01652298,-0.06492434,0.07798126,0.00194108,0.00466227,-
 0.01410796,0.01201419,0.07390505,0.00103543,-0.00014273,0.00115724,-0.
 00161736,-0.00140452,-0.00185986,-0.00025446,0.00061621,0.00146139,0.0
 0464912,0.08471477,-0.31809130,0.00286969,0.00627891,-0.01206893,-0.00
 691928,-0.08964529,0.32929253,0.00032490,-0.00004095,0.00020126,-0.001
 22184,-0.00622940,0.00224588,0.00048716,-0.00041706,-0.00047464,-0.001
 41367,0.00122693,0.00018807,-0.00006201,-0.00015614,0.00012319,-0.0000
 6993,-0.00018874,-0.00001983,0.03407854,-0.00031025,0.00005836,0.00009
 359,0.00071976,0.00140027,-0.00048982,-0.00040452,0.00015565,-0.000057
 84,0.00025211,-0.00036482,-0.00008301,-0.00000465,0.00008941,0.0000098
 2,-0.00003249,0.00009937,-0.00002719,0.04771902,0.32804173,0.00013947,
 0.00003235,-0.00030146,-0.00118974,0.00021969,0.00004018,-0.00000020,-
 0.00003266,0.00016683,-0.00017636,0.00075162,-0.00002235,0.00013682,-0
 .00008733,-0.00001773,-0.00001779,-0.00001989,0.00000511,-0.01133125,-
 0.07877536,0.07355591,-0.00945967,0.00095198,0.00101398,0.05290349,0.0
 3211663,-0.03029598,-0.01426419,0.00222650,0.00613089,0.00596253,-0.05
 020764,0.00449674,-0.00331095,0.00178448,0.00191335,-0.00418722,0.0017
 6580,-0.00016638,-0.03824105,-0.04279506,0.01153792,0.09274759,0.00692
 419,-0.00029728,-0.00067613,-0.01600658,-0.02704382,0.00895043,0.00547
 043,-0.00068199,-0.00276142,-0.01071436,0.02090298,-0.00098369,0.00126
 541,-0.00124268,0.00004341,0.00171472,-0.00158514,-0.00033368,-0.04926
 293,-0.31148062,0.07924251,0.06596240,0.69850474,0.01039127,-0.0016534
 9,-0.00230403,-0.04726317,-0.02187925,0.00818362,0.00058417,-0.0011026
 7,-0.00067256,-0.00747640,0.03863052,-0.00528549,0.00308204,-0.0015291
 5,-0.00137149,0.00342585,-0.00107123,0.00002098,0.00941894,0.07476085,
 -0.07714150,0.09100390,0.02642169,0.65706534,0.00006623,0.00018554,-0.
 00009507,-0.00180938,-0.00026162,0.00056454,0.00007452,0.00020308,0.00
 000903,0.00190203,0.00629408,-0.00066154,0.00071049,-0.00011719,-0.000
 43622,0.00042907,-0.00013795,0.00010989,0.00042286,-0.00009840,-0.0000
 9143,0.00001882,0.00116589,-0.00134863,0.07255488,0.00004386,-0.000019
 32,0.00003930,0.00038181,-0.00021372,0.00000647,0.00008233,-0.00005476
 ,-0.00006946,-0.00149233,-0.00169322,0.00015602,0.00006232,0.00005121,
 0.00035235,0.00008725,-0.00017783,-0.00025655,-0.00021156,0.00002445,0
 .00020288,0.00040828,-0.00044704,0.00028788,0.11303144,0.30381724,-0.0
 0003393,0.00001436,-0.00001172,-0.00052374,-0.00042067,0.00021978,0.00
 012919,-0.00000978,-0.00000965,-0.00081414,0.00044792,0.00000274,-0.00
 007938,0.00009512,0.00004815,-0.00001627,-0.00014208,-0.00016788,-0.00
 010852,0.00004951,0.00037718,0.00005679,-0.00117171,-0.00101942,-0.018
 56582,-0.04513215,0.05930416,0.00074968,-0.00032450,0.00012710,-0.0128
 0743,-0.00868948,0.00945879,0.00176248,-0.00047639,-0.00081502,-0.0184
 2829,0.02595246,0.00750402,0.00202356,-0.00064672,0.00116544,0.0007681
 0,-0.00064166,0.00001666,0.00643343,0.00006568,0.00013843,0.01349145,-
 0.01222160,-0.00927826,-0.00106334,-0.00088949,0.00903221,0.20403541,0
 .00488003,-0.00066123,-0.00073337,-0.03431143,-0.02575176,0.01284439,0
 .00377478,-0.00081163,-0.00107825,-0.01557735,0.03788371,0.00018491,0.
 00371586,-0.00183423,-0.00157483,0.00355012,-0.00164392,0.00006721,-0.
 00208185,-0.00082186,-0.00275482,0.02201589,-0.05676977,-0.03745449,-0
 .01003086,-0.00207844,0.02848415,0.15223094,0.62380634,-0.00333862,0.0
 0072503,0.00018474,0.03142284,0.02354106,-0.01349480,-0.00294574,0.000
 72856,0.00107244,0.02392879,-0.04943520,-0.00571512,-0.00457068,0.0029
 0051,0.00245312,-0.00383462,0.00173235,0.00080654,0.00290473,-0.004059
 42,-0.00284043,-0.02432180,-0.00037874,0.03891007,-0.00035004,-0.00247
 841,-0.00014873,-0.06476459,0.02874235,0.71253845,0.00044512,0.0000044
 9,0.00004989,-0.00231373,-0.00164705,0.00084538,0.00011738,0.00000577,
 -0.00023726,-0.00043109,0.00261767,-0.00034954,0.00012542,-0.00010842,
 -0.00002129,0.00030367,-0.00016885,-0.00004667,-0.00506835,0.00069877,
 0.00025354,0.00612106,-0.00212690,-0.00262876,0.00009435,-0.00014606,0
 .00034420,0.00110359,-0.00560333,0.00788852,0.02728591,-0.00021704,0.0
 0007119,0.00004434,0.00106751,0.00062261,-0.00042425,-0.00003155,0.000
 10970,0.00009538,0.00038756,-0.00122673,-0.00000071,-0.00009251,0.0000
 4856,0.00007637,-0.00010729,0.00000079,-0.00003537,0.00074709,0.000984
 50,0.00018459,-0.00152385,0.00836638,-0.02311015,-0.00078384,-0.000120
 73,0.00122632,-0.00248547,-0.00335941,0.02955549,0.01093247,0.07621191
 ,0.00011387,0.00002255,0.00008265,-0.00034766,-0.00019750,-0.00013013,
 0.00015897,-0.00003951,-0.00003306,-0.00007714,-0.00011282,0.00018019,
 0.00001057,0.00003953,-0.00003432,-0.00004599,0.00001635,0.00003560,-0
 .00041940,-0.00003312,0.00114955,-0.00016443,0.00705421,-0.01747553,0.
 00016851,-0.00008595,-0.00027108,-0.00032389,-0.00153312,-0.00375199,-
 0.02347561,-0.07183421,0.33084319,-0.00153921,0.00043603,0.00007874,-0
 .00300155,0.00659074,0.00372372,-0.00063583,0.00062315,0.00207694,0.00
 431308,-0.01072271,0.00455891,-0.00063145,0.00026310,-0.00009018,-0.00
 186246,0.00116661,0.00025584,0.00274064,-0.00455015,-0.00528333,-0.054
 28167,-0.00236475,0.00138034,0.00608042,-0.00294250,0.00183725,-0.0782
 8797,-0.05999350,-0.00150733,-0.03661128,-0.00607171,0.02314561,0.1676
 8761,-0.00511504,0.00066562,0.00063988,0.05655468,0.02984404,-0.027399
 63,-0.00618243,0.00126214,0.00201504,0.02024537,-0.05651791,0.00076933
 ,-0.00465977,0.00225078,0.00141297,-0.00513485,0.00220952,0.00029004,0
 .00342920,-0.01555243,-0.02255338,-0.04774980,-0.24686483,-0.12058630,
 0.00028317,0.00137004,0.00032374,-0.06978263,-0.29051155,0.00418867,-0
 .00266523,-0.07517194,0.06818943,0.09234638,0.65954371,-0.00198584,0.0
 0063436,0.00080267,0.02391391,0.01194107,-0.01307549,-0.00275735,0.000
 49698,0.00201251,0.00566301,-0.01636609,0.00014178,-0.00088200,0.00042
 549,0.00040208,-0.00100364,0.00015326,-0.00007149,-0.00089489,0.009806
 72,0.00952142,-0.02100610,-0.16099391,-0.25889381,0.00373005,0.0003234
 4,-0.00468118,0.02080760,0.07579359,-0.13309284,0.01986642,0.06757034,
 -0.31186163,-0.05014651,0.02330988,0.71318284,0.00033491,-0.00005029,-
 0.00004002,-0.00193463,-0.00201735,0.00084351,0.00018308,-0.00001475,-
 0.00008293,-0.00123522,0.00298770,-0.00017006,0.00011327,-0.00012962,-
 0.00023807,0.00045256,-0.00021518,0.00007336,0.00041952,-0.00032322,-0
 .00028465,0.00592408,-0.00382404,0.00043659,-0.00414564,0.00238648,-0.
 00026681,-0.04936990,-0.04116199,-0.03260449,-0.00337442,0.00110996,0.
 00007866,0.00255531,-0.00187137,-0.00860032,0.03741595,-0.00011139,0.0
 0000055,0.00008515,0.00012757,0.00046535,0.00004687,-0.00001219,-0.000
 05666,-0.00004135,0.00001463,-0.00034855,-0.00000674,0.00008149,0.0000
 7637,-0.00001067,0.00001439,0.00003005,-0.00004280,0.00033293,-0.00090
 662,-0.00098220,-0.00325947,-0.00327381,0.00326348,0.00209422,0.000064
 86,-0.00007032,-0.03681199,-0.15969223,-0.13202920,0.00137257,0.000688
 11,0.00007546,-0.00449231,-0.01570354,-0.02338724,0.04207814,0.1694370
 1,-0.00004034,0.00003348,0.00000380,0.00019793,0.00026398,-0.00000788,
 -0.00003354,-0.00002726,0.00001389,-0.00008995,0.00007847,-0.00023832,
 0.00011790,-0.00008661,0.00000417,0.00004274,-0.00003036,0.00011715,-0
 .00003006,0.00030799,0.00019003,0.00001715,0.00143861,0.00056969,-0.00
 065635,0.00044502,0.00114709,-0.03178537,-0.13379416,-0.21457781,-0.00
 003472,-0.00011226,0.00098752,0.00175914,0.00709917,0.00714290,0.03499
 388,0.14110886,0.22748302,-0.00457492,0.00034661,0.00044659,0.03303088
 ,0.03454783,-0.01556317,-0.00350944,0.00062963,0.00178379,0.01898951,-
 0.06549735,-0.00558602,-0.01316266,0.00843229,0.00511614,-0.00924590,0
 .00494011,-0.00000775,-0.00085922,0.00009839,0.00062962,-0.02682792,0.
 01321353,0.02373671,-0.07303769,-0.10833700,0.01599680,-0.06874509,-0.
 01603571,0.05119280,0.00640014,-0.00312024,-0.00009968,-0.00873354,-0.
 04770905,0.00457698,0.00855401,0.00092903,-0.00771577,0.20714361,0.001
 94007,-0.00085181,0.00052129,-0.01065788,-0.02144684,0.00699498,0.0017
 5917,-0.00115697,-0.00140289,-0.02528211,0.02423140,0.00492579,0.00304
 101,-0.00122727,-0.00114266,0.00346374,-0.00146094,-0.00079998,-0.0013
 2809,0.00070685,0.00035066,0.00968753,-0.00999340,-0.00406252,-0.10282
 731,-0.29294708,0.03682398,-0.05263805,-0.12859435,0.09575735,-0.00264
 718,-0.00463361,0.00145144,-0.00630501,-0.00126636,0.03251262,0.003917
 98,0.00771630,-0.01773420,0.24802977,0.54005222,0.00354446,-0.00061485
 ,-0.00031935,-0.02823065,-0.02571844,0.00997240,0.00324629,-0.00056450
 ,-0.00126595,-0.02298328,0.04537971,-0.00915566,0.00135360,-0.00018941
 ,-0.00122341,0.01011114,-0.00528344,-0.00137990,-0.00085936,-0.0002975
 2,-0.00129748,0.02061995,-0.01804159,-0.02518774,0.01394555,0.04247323
 ,-0.06087095,0.06692118,0.04467982,-0.36265561,-0.00091072,-0.00026333
 ,0.00145401,0.02049103,0.06090878,0.00562685,0.00507775,0.00953871,-0.
 01925895,0.01714147,-0.05067850,0.70108073,0.00048998,0.00001943,-0.00
 001001,-0.00587089,-0.00568991,0.00224725,0.00072666,-0.00031989,-0.00
 023350,-0.01345465,0.01215552,-0.00314870,0.00020197,0.00003206,0.0002
 5549,0.00030735,-0.00034478,-0.00007980,-0.00051671,0.00013545,0.00028
 095,0.00471094,-0.00343913,-0.00262177,-0.00187035,-0.00287082,-0.0073
 0398,0.00378891,-0.00005518,0.01609521,-0.00073920,0.00045009,-0.00013
 403,-0.00166393,0.00673173,0.00105686,0.00479171,-0.00235873,0.0031495
 3,-0.07071852,-0.06844241,-0.10423696,0.07933223,-0.00016593,-0.000067
 70,-0.00008008,0.00399940,0.00260492,-0.00071025,-0.00040861,0.0001356
 1,0.00008291,0.00876060,-0.00726889,0.00136271,0.00011784,-0.00022665,
 0.00012729,-0.00028280,0.00046554,0.00067177,0.00024147,0.00017482,-0.
 00019139,-0.00165657,0.00096057,0.00528915,-0.00928884,-0.00774173,-0.
 02067757,0.00687408,0.01152172,-0.00048836,-0.00008246,0.00000780,-0.0
 0024847,0.00035004,-0.00646531,-0.00110620,-0.00344933,0.00144418,0.00
 077644,-0.06857486,-0.10798415,-0.09921413,0.06422903,0.11340859,-0.00
 003340,-0.00000470,-0.00003431,-0.00039651,-0.00005324,0.00058129,-0.0
 0003444,0.00004258,-0.00000315,0.00114194,0.00023386,0.00016957,0.0002
 5116,-0.00020418,0.00002142,0.00115051,-0.00032424,0.00081839,0.000279
 62,-0.00000991,0.00058110,-0.00060186,-0.00003173,0.00039539,0.0034088
 3,0.00374452,0.00558127,-0.01077180,-0.01477271,-0.01856265,0.00015984
 ,-0.00001662,0.00010733,0.00076908,-0.00230089,0.00087062,0.00078264,0
 .00250355,-0.00357779,-0.09132800,-0.10478426,-0.23743802,0.09490017,0
 .11490929,0.25036104,0.00070548,0.00004277,-0.00044574,-0.02096685,-0.
 00437796,0.00090392,0.00008933,-0.00009556,0.00020725,-0.00276953,0.00
 922312,-0.00120264,0.00084922,-0.00024728,-0.00026340,0.00041082,-0.00
 027524,0.00010153,0.00254573,-0.00117044,0.00525800,-0.03130730,0.0042
 4371,-0.07284284,-0.00042726,0.00040600,0.00031615,-0.00545457,-0.0053
 1642,0.00480503,0.00654142,-0.00026116,0.00141164,0.00387184,0.0112796
 3,0.00766183,-0.00068459,0.00000110,0.00010782,0.00529676,-0.00171123,
 -0.00523144,0.00048452,-0.00066306,0.00032223,0.04081498,0.00060199,-0
 .00007726,-0.00019808,0.00058278,0.00030131,0.00043280,-0.00013754,-0.
 00010180,-0.00017432,-0.00071109,-0.00058319,-0.00001079,-0.00008109,-
 0.00000483,0.00006807,-0.00012520,0.00005414,0.00004918,0.00622009,-0.
 00260907,0.02441272,0.01027291,-0.06905431,0.06379568,0.00028859,0.000
 16608,0.00015917,0.00048481,-0.00068136,0.00099795,-0.00043626,-0.0025
 9913,-0.00276424,-0.00433344,0.01090803,-0.02111430,0.00057689,0.00005
 863,0.00023282,-0.00189299,-0.00114401,-0.00211453,-0.00023248,-0.0009
 6932,0.00106870,-0.01107798,0.06633609,0.00101578,0.00004423,0.0009625
 0,0.00336144,-0.00032732,0.00010767,0.00040334,0.00010262,0.00001344,0
 .00039466,-0.00037707,0.00066317,-0.00012747,0.00001481,0.00001430,-0.
 00002800,0.00001680,-0.00007555,-0.00122374,-0.00119530,-0.00396637,-0
 .06023411,0.06222173,-0.31579352,0.00026872,-0.00000859,0.00050025,0.0
 0256749,0.00289933,-0.00112539,-0.00170322,-0.00295592,-0.00128232,-0.
 00304925,0.00369327,-0.01802722,0.00000096,-0.00005157,0.00000149,-0.0
 0032052,0.00126691,0.00191902,-0.00021672,-0.00050311,0.00012850,0.058
 89064,-0.06484082,0.33596002\\0.00000560,-0.00000034,0.00000044,-0.000
 00212,-0.00001522,-0.00000352,-0.00000277,-0.00000076,0.00000005,0.000
 00537,0.00001616,0.,0.00000530,-0.00000388,0.00000134,-0.00000498,0.00
 000307,0.00000122,0.00000020,0.00000010,-0.00000023,0.00000154,0.00000
 330,0.00000237,-0.00000387,0.00000099,-0.00000483,-0.00000015,-0.00002
 112,0.00000848,0.00000017,-0.00000092,-0.00000021,-0.00001251,0.000011
 11,0.00000163,0.00000034,0.00000440,-0.00000417,0.00001167,0.00000401,
 -0.00000283,-0.00000535,-0.00000034,-0.00000067,0.00000155,-0.00000057
 ,0.00000095\\\@


 IF YOU PERCEIVE THAT THERE ARE FOUR POSSIBLE WAYS IN
 WHICH A PROCEDURE CAN GO WRONG AND CIRCUMVENT THESE, 
 THEN A FIFTH WAY WILL DEVELOP.

                              -- MURPHY'S TWELFTH LAW
 Job cpu time:       0 days  0 hours  4 minutes 35.7 seconds.
 File lengths (MBytes):  RWF=     34 Int=      0 D2E=      0 Chk=      3 Scr=      1
 Normal termination of Gaussian 09 at Tue Jun 16 08:30:31 2026.
