16
gen_9_frame_0000
H           0.934005       -1.890303       -1.194122
C           0.690943       -1.040796       -0.579243
H           1.525688       -1.626725        0.506856
C           1.055781        0.062162       -0.879701
H           2.178051        0.762791       -0.030319
H           1.586130        0.538161       -1.731080
H          -1.038793       -2.304399        0.589568
C          -0.734137       -1.285246        0.347985
H           0.288335        2.634972       -0.505225
C          -0.727058        1.228027        0.908717
H          -1.278285       -0.435967        2.150129
C          -1.087888       -0.235953        1.214547
H          -0.637073        1.833533        1.621250
C           0.021365        1.652301       -0.275136
H          -0.936315        1.013749       -1.400785
H          -1.490747       -0.906306       -0.943439
16
gen_9_frame_0001
H           0.932005       -1.889303       -1.195322
C           0.698543       -1.042796       -0.576643
H           1.523088       -1.626125        0.506456
C           1.063381        0.064162       -0.877101
H           2.175451        0.762191       -0.030719
H           1.584130        0.537161       -1.732280
H          -1.043393       -2.302399        0.588368
C          -0.741337       -1.282846        0.345785
H           0.283735        2.632972       -0.506425
C          -0.727058        1.226627        0.908317
H          -1.276285       -0.436167        2.152129
C          -1.088088       -0.234553        1.214147
H          -0.635073        1.833733        1.623250
C           0.014165        1.649901       -0.277336
H          -0.932915        1.014349       -1.397985
H          -1.487347       -0.906906       -0.940639
16
gen_9_frame_0002
H           0.930005       -1.888303       -1.196522
C           0.706143       -1.044796       -0.574043
H           1.520488       -1.625525        0.506056
C           1.070981        0.066162       -0.874501
H           2.172851        0.761591       -0.031119
H           1.582130        0.536161       -1.733480
H          -1.047993       -2.300399        0.587168
C          -0.748537       -1.280446        0.343585
H           0.279135        2.630972       -0.507625
C          -0.727058        1.225227        0.907917
H          -1.274285       -0.436367        2.154129
C          -1.088288       -0.233153        1.213747
H          -0.633073        1.833933        1.625250
C           0.006965        1.647501       -0.279536
H          -0.929515        1.014949       -1.395185
H          -1.483947       -0.907506       -0.937839
16
gen_9_frame_0003
H           0.928005       -1.887303       -1.197722
C           0.713743       -1.046796       -0.571443
H           1.517888       -1.624925        0.505656
C           1.078581        0.068162       -0.871901
H           2.170251        0.760991       -0.031519
H           1.580130        0.535161       -1.734680
H          -1.052593       -2.298399        0.585968
C          -0.755737       -1.278046        0.341385
H           0.274535        2.628972       -0.508825
C          -0.727058        1.223827        0.907517
H          -1.272285       -0.436567        2.156129
C          -1.088488       -0.231753        1.213347
H          -0.631073        1.834133        1.627250
C          -0.000235        1.645101       -0.281736
H          -0.926115        1.015549       -1.392385
H          -1.480547       -0.908106       -0.935039
16
gen_9_frame_0004
H           0.926005       -1.886303       -1.198922
C           0.721343       -1.048796       -0.568843
H           1.515288       -1.624325        0.505256
C           1.086181        0.070162       -0.869301
H           2.167651        0.760391       -0.031919
H           1.578130        0.534161       -1.735880
H          -1.057193       -2.296399        0.584768
C          -0.762937       -1.275646        0.339185
H           0.269935        2.626972       -0.510025
C          -0.727058        1.222427        0.907117
H          -1.270285       -0.436767        2.158129
C          -1.088688       -0.230353        1.212947
H          -0.629073        1.834333        1.629250
C          -0.007435        1.642701       -0.283936
H          -0.922715        1.016149       -1.389585
H          -1.477147       -0.908706       -0.932239
16
gen_9_frame_0005
H           0.924005       -1.885303       -1.200122
C           0.728943       -1.050796       -0.566243
H           1.512688       -1.623725        0.504856
C           1.093781        0.072162       -0.866701
H           2.165051        0.759791       -0.032319
H           1.576130        0.533161       -1.737080
H          -1.061793       -2.294399        0.583568
C          -0.770137       -1.273246        0.336985
H           0.265335        2.624972       -0.511225
C          -0.727058        1.221027        0.906717
H          -1.268285       -0.436967        2.160129
C          -1.088888       -0.228953        1.212547
H          -0.627073        1.834533        1.631250
C          -0.014635        1.640301       -0.286136
H          -0.919315        1.016749       -1.386785
H          -1.473747       -0.909306       -0.929439
16
gen_9_frame_0006
H           0.922005       -1.884303       -1.201322
C           0.736543       -1.052796       -0.563643
H           1.510088       -1.623125        0.504456
C           1.101381        0.074162       -0.864101
H           2.162451        0.759191       -0.032719
H           1.574130        0.532161       -1.738280
H          -1.066393       -2.292399        0.582368
C          -0.777337       -1.270846        0.334785
H           0.260735        2.622972       -0.512425
C          -0.727058        1.219627        0.906317
H          -1.266285       -0.437167        2.162129
C          -1.089088       -0.227553        1.212147
H          -0.625073        1.834733        1.633250
C          -0.021835        1.637901       -0.288336
H          -0.915915        1.017349       -1.383985
H          -1.470347       -0.909906       -0.926639
16
gen_9_frame_0007
H           0.920005       -1.883303       -1.202522
C           0.744143       -1.054796       -0.561043
H           1.507488       -1.622525        0.504056
C           1.108981        0.076162       -0.861501
H           2.159851        0.758591       -0.033119
H           1.572130        0.531161       -1.739480
H          -1.070993       -2.290399        0.581168
C          -0.784537       -1.268446        0.332585
H           0.256135        2.620972       -0.513625
C          -0.727058        1.218227        0.905917
H          -1.264285       -0.437367        2.164129
C          -1.089288       -0.226153        1.211747
H          -0.623073        1.834933        1.635250
C          -0.029035        1.635501       -0.290536
H          -0.912515        1.017949       -1.381185
H          -1.466947       -0.910506       -0.923839
16
gen_9_frame_0008
H           0.918005       -1.882303       -1.203722
C           0.751743       -1.056796       -0.558443
H           1.504888       -1.621925        0.503656
C           1.116581        0.078162       -0.858901
H           2.157251        0.757991       -0.033519
H           1.570130        0.530161       -1.740680
H          -1.075593       -2.288399        0.579968
C          -0.791737       -1.266046        0.330385
H           0.251535        2.618972       -0.514825
C          -0.727058        1.216827        0.905517
H          -1.262285       -0.437567        2.166129
C          -1.089488       -0.224753        1.211347
H          -0.621073        1.835133        1.637250
C          -0.036235        1.633101       -0.292736
H          -0.909115        1.018549       -1.378385
H          -1.463547       -0.911106       -0.921039
16
gen_9_frame_0009
H           0.916005       -1.881303       -1.204922
C           0.759343       -1.058796       -0.555843
H           1.502288       -1.621325        0.503256
C           1.124181        0.080162       -0.856301
H           2.154651        0.757391       -0.033919
H           1.568130        0.529161       -1.741880
H          -1.080193       -2.286399        0.578768
C          -0.798937       -1.263646        0.328185
H           0.246935        2.616972       -0.516025
C          -0.727058        1.215427        0.905117
H          -1.260285       -0.437767        2.168129
C          -1.089688       -0.223353        1.210947
H          -0.619073        1.835333        1.639250
C          -0.043435        1.630701       -0.294936
H          -0.905715        1.019149       -1.375585
H          -1.460147       -0.911706       -0.918239
16
gen_9_frame_0010
H           0.914005       -1.880303       -1.206122
C           0.766943       -1.060796       -0.553243
H           1.499688       -1.620725        0.502856
C           1.131781        0.082162       -0.853701
H           2.152051        0.756791       -0.034319
H           1.566130        0.528161       -1.743080
H          -1.084793       -2.284399        0.577568
C          -0.806137       -1.261246        0.325985
H           0.242335        2.614972       -0.517225
C          -0.727058        1.214027        0.904717
H          -1.258285       -0.437967        2.170129
C          -1.089888       -0.221953        1.210547
H          -0.617073        1.835533        1.641250
C          -0.050635        1.628301       -0.297136
H          -0.902315        1.019749       -1.372785
H          -1.456747       -0.912306       -0.915439
16
gen_9_frame_0011
H           0.912005       -1.879303       -1.207322
C           0.774543       -1.062796       -0.550643
H           1.497088       -1.620125        0.502456
C           1.139381        0.084162       -0.851101
H           2.149451        0.756191       -0.034719
H           1.564130        0.527161       -1.744280
H          -1.089393       -2.282399        0.576368
C          -0.813337       -1.258846        0.323785
H           0.237735        2.612972       -0.518425
C          -0.727058        1.212627        0.904317
H          -1.256285       -0.438167        2.172129
C          -1.090088       -0.220553        1.210147
H          -0.615073        1.835733        1.643250
C          -0.057835        1.625901       -0.299336
H          -0.898915        1.020349       -1.369985
H          -1.453347       -0.912906       -0.912639
16
gen_9_frame_0012
H           0.910005       -1.878303       -1.208522
C           0.782143       -1.064796       -0.548043
H           1.494488       -1.619525        0.502056
C           1.146981        0.086162       -0.848501
H           2.146851        0.755591       -0.035119
H           1.562130        0.526161       -1.745480
H          -1.093993       -2.280399        0.575168
C          -0.820537       -1.256446        0.321585
H           0.233135        2.610972       -0.519625
C          -0.727058        1.211227        0.903917
H          -1.254285       -0.438367        2.174129
C          -1.090288       -0.219153        1.209747
H          -0.613073        1.835933        1.645250
C          -0.065035        1.623501       -0.301536
H          -0.895515        1.020949       -1.367185
H          -1.449947       -0.913506       -0.909839
16
gen_9_frame_0013
H           0.908005       -1.877303       -1.209722
C           0.789743       -1.066796       -0.545443
H           1.491888       -1.618925        0.501656
C           1.154581        0.088162       -0.845901
H           2.144251        0.754991       -0.035519
H           1.560130        0.525161       -1.746680
H          -1.098593       -2.278399        0.573968
C          -0.827737       -1.254046        0.319385
H           0.228535        2.608972       -0.520825
C          -0.727058        1.209827        0.903517
H          -1.252285       -0.438567        2.176129
C          -1.090488       -0.217753        1.209347
H          -0.611073        1.836133        1.647250
C          -0.072235        1.621101       -0.303736
H          -0.892115        1.021549       -1.364385
H          -1.446547       -0.914106       -0.907039
16
gen_9_frame_0014
H           0.906005       -1.876303       -1.210922
C           0.797343       -1.068796       -0.542843
H           1.489288       -1.618325        0.501256
C           1.162181        0.090162       -0.843301
H           2.141651        0.754391       -0.035919
H           1.558130        0.524161       -1.747880
H          -1.103193       -2.276399        0.572768
C          -0.834937       -1.251646        0.317185
H           0.223935        2.606972       -0.522025
C          -0.727058        1.208427        0.903117
H          -1.250285       -0.438767        2.178129
C          -1.090688       -0.216353        1.208947
H          -0.609073        1.836333        1.649250
C          -0.079435        1.618701       -0.305936
H          -0.888715        1.022149       -1.361585
H          -1.443147       -0.914706       -0.904239
16
gen_9_frame_0015
H           0.904005       -1.875303       -1.212122
C           0.804943       -1.070796       -0.540243
H           1.486688       -1.617725        0.500856
C           1.169781        0.092162       -0.840701
H           2.139051        0.753791       -0.036319
H           1.556130        0.523161       -1.749080
H          -1.107793       -2.274399        0.571568
C          -0.842137       -1.249246        0.314985
H           0.219335        2.604972       -0.523225
C          -0.727058        1.207027        0.902717
H          -1.248285       -0.438967        2.180129
C          -1.090888       -0.214953        1.208547
H          -0.607073        1.836533        1.651250
C          -0.086635        1.616301       -0.308136
H          -0.885315        1.022749       -1.358785
H          -1.439747       -0.915306       -0.901439
16
gen_9_frame_0016
H           0.902005       -1.874303       -1.213322
C           0.812543       -1.072796       -0.537643
H           1.484088       -1.617125        0.500456
C           1.177381        0.094162       -0.838101
H           2.136451        0.753191       -0.036719
H           1.554130        0.522161       -1.750280
H          -1.112393       -2.272399        0.570368
C          -0.849337       -1.246846        0.312785
H           0.214735        2.602972       -0.524425
C          -0.727058        1.205627        0.902317
H          -1.246285       -0.439167        2.182129
C          -1.091088       -0.213553        1.208147
H          -0.605073        1.836733        1.653250
C          -0.093835        1.613901       -0.310336
H          -0.881915        1.023349       -1.355985
H          -1.436347       -0.915906       -0.898639
16
gen_9_frame_0017
H           0.900005       -1.873303       -1.214522
C           0.820143       -1.074796       -0.535043
H           1.481488       -1.616525        0.500056
C           1.184981        0.096162       -0.835501
H           2.133851        0.752591       -0.037119
H           1.552130        0.521161       -1.751480
H          -1.116993       -2.270399        0.569168
C          -0.856537       -1.244446        0.310585
H           0.210135        2.600972       -0.525625
C          -0.727058        1.204227        0.901917
H          -1.244285       -0.439367        2.184129
C          -1.091288       -0.212153        1.207747
H          -0.603073        1.836933        1.655250
C          -0.101035        1.611501       -0.312536
H          -0.878515        1.023949       -1.353185
H          -1.432947       -0.916506       -0.895839
16
gen_9_frame_0018
H           0.898005       -1.872303       -1.215722
C           0.827743       -1.076796       -0.532443
H           1.478888       -1.615925        0.499656
C           1.192581        0.098162       -0.832901
H           2.131251        0.751991       -0.037519
H           1.550130        0.520161       -1.752680
H          -1.121593       -2.268399        0.567968
C          -0.863737       -1.242046        0.308385
H           0.205535        2.598972       -0.526825
C          -0.727058        1.202827        0.901517
H          -1.242285       -0.439567        2.186129
C          -1.091488       -0.210753        1.207347
H          -0.601073        1.837133        1.657250
C          -0.108235        1.609101       -0.314736
H          -0.875115        1.024549       -1.350385
H          -1.429547       -0.917106       -0.893039
16
gen_9_frame_0019
H           0.896005       -1.871303       -1.216922
C           0.835343       -1.078796       -0.529843
H           1.476288       -1.615325        0.499256
C           1.200181        0.100162       -0.830301
H           2.128651        0.751391       -0.037919
H           1.548130        0.519161       -1.753880
H          -1.126193       -2.266399        0.566768
C          -0.870937       -1.239646        0.306185
H           0.200935        2.596972       -0.528025
C          -0.727058        1.201427        0.901117
H          -1.240285       -0.439767        2.188129
C          -1.091688       -0.209353        1.206947
H          -0.599073        1.837333        1.659250
C          -0.115435        1.606701       -0.316936
H          -0.871715        1.025149       -1.347585
H          -1.426147       -0.917706       -0.890239
16
gen_9_frame_0020
H           0.894005       -1.870303       -1.218122
C           0.842943       -1.080796       -0.527243
H           1.473688       -1.614725        0.498856
C           1.207781        0.102162       -0.827701
H           2.126051        0.750791       -0.038319
H           1.546130        0.518161       -1.755080
H          -1.130793       -2.264399        0.565568
C          -0.878137       -1.237246        0.303985
H           0.196335        2.594972       -0.529225
C          -0.727058        1.200027        0.900717
H          -1.238285       -0.439967        2.190129
C          -1.091888       -0.207953        1.206547
H          -0.597073        1.837533        1.661250
C          -0.122635        1.604301       -0.319136
H          -0.868315        1.025749       -1.344785
H          -1.422747       -0.918306       -0.887439
16
gen_9_frame_0021
H           0.892005       -1.869303       -1.219322
C           0.850543       -1.082796       -0.524643
H           1.471088       -1.614125        0.498456
C           1.215381        0.104162       -0.825101
H           2.123451        0.750191       -0.038719
H           1.544130        0.517161       -1.756280
H          -1.135393       -2.262399        0.564368
C          -0.885337       -1.234846        0.301785
H           0.191735        2.592972       -0.530425
C          -0.727058        1.198627        0.900317
H          -1.236285       -0.440167        2.192129
C          -1.092088       -0.206553        1.206147
H          -0.595073        1.837733        1.663250
C          -0.129835        1.601901       -0.321336
H          -0.864915        1.026349       -1.341985
H          -1.419347       -0.918906       -0.884639
16
gen_9_frame_0022
H           0.890005       -1.868303       -1.220522
C           0.858143       -1.084796       -0.522043
H           1.468488       -1.613525        0.498056
C           1.222981        0.106162       -0.822501
H           2.120851        0.749591       -0.039119
H           1.542130        0.516161       -1.757480
H          -1.139993       -2.260399        0.563168
C          -0.892537       -1.232446        0.299585
H           0.187135        2.590972       -0.531625
C          -0.727058        1.197227        0.899917
H          -1.234285       -0.440367        2.194129
C          -1.092288       -0.205153        1.205747
H          -0.593073        1.837933        1.665250
C          -0.137035        1.599501       -0.323536
H          -0.861515        1.026949       -1.339185
H          -1.415947       -0.919506       -0.881839
16
gen_9_frame_0023
H           0.888005       -1.867303       -1.221722
C           0.865743       -1.086796       -0.519443
H           1.465888       -1.612925        0.497656
C           1.230581        0.108162       -0.819901
H           2.118251        0.748991       -0.039519
H           1.540130        0.515161       -1.758680
H          -1.144593       -2.258399        0.561968
C          -0.899737       -1.230046        0.297385
H           0.182535        2.588972       -0.532825
C          -0.727058        1.195827        0.899517
H          -1.232285       -0.440567        2.196129
C          -1.092488       -0.203753        1.205347
H          -0.591073        1.838133        1.667250
C          -0.144235        1.597101       -0.325736
H          -0.858115        1.027549       -1.336385
H          -1.412547       -0.920106       -0.879039
16
gen_9_frame_0024
H           0.886005       -1.866303       -1.222922
C           0.873343       -1.088796       -0.516843
H           1.463288       -1.612325        0.497256
C           1.238181        0.110162       -0.817301
H           2.115651        0.748391       -0.039919
H           1.538130        0.514161       -1.759880
H          -1.149193       -2.256399        0.560768
C          -0.906937       -1.227646        0.295185
H           0.177935        2.586972       -0.534025
C          -0.727058        1.194427        0.899117
H          -1.230285       -0.440767        2.198129
C          -1.092688       -0.202353        1.204947
H          -0.589073        1.838333        1.669250
C          -0.151435        1.594701       -0.327936
H          -0.854715        1.028149       -1.333585
H          -1.409147       -0.920706       -0.876239
16
gen_9_frame_0025
H           0.884005       -1.865303       -1.224122
C           0.880943       -1.090796       -0.514243
H           1.460688       -1.611725        0.496856
C           1.245781        0.112162       -0.814701
H           2.113051        0.747791       -0.040319
H           1.536130        0.513161       -1.761080
H          -1.153793       -2.254399        0.559568
C          -0.914137       -1.225246        0.292985
H           0.173335        2.584972       -0.535225
C          -0.727058        1.193027        0.898717
H          -1.228285       -0.440967        2.200129
C          -1.092888       -0.200953        1.204547
H          -0.587073        1.838533        1.671250
C          -0.158635        1.592301       -0.330136
H          -0.851315        1.028749       -1.330785
H          -1.405747       -0.921306       -0.873439
16
gen_9_frame_0026
H           0.882005       -1.864303       -1.225322
C           0.888543       -1.092796       -0.511643
H           1.458088       -1.611125        0.496456
C           1.253381        0.114162       -0.812101
H           2.110451        0.747191       -0.040719
H           1.534130        0.512161       -1.762280
H          -1.158393       -2.252399        0.558368
C          -0.921337       -1.222846        0.290785
H           0.168735        2.582972       -0.536425
C          -0.727058        1.191627        0.898317
H          -1.226285       -0.441167        2.202129
C          -1.093088       -0.199553        1.204147
H          -0.585073        1.838733        1.673250
C          -0.165835        1.589901       -0.332336
H          -0.847915        1.029349       -1.327985
H          -1.402347       -0.921906       -0.870639
16
gen_9_frame_0027
H           0.880005       -1.863303       -1.226522
C           0.896143       -1.094796       -0.509043
H           1.455488       -1.610525        0.496056
C           1.260981        0.116162       -0.809501
H           2.107851        0.746591       -0.041119
H           1.532130        0.511161       -1.763480
H          -1.162993       -2.250399        0.557168
C          -0.928537       -1.220446        0.288585
H           0.164135        2.580972       -0.537625
C          -0.727058        1.190227        0.897917
H          -1.224285       -0.441367        2.204129
C          -1.093288       -0.198153        1.203747
H          -0.583073        1.838933        1.675250
C          -0.173035        1.587501       -0.334536
H          -0.844515        1.029949       -1.325185
H          -1.398947       -0.922506       -0.867839
16
gen_9_frame_0028
H           0.878005       -1.862303       -1.227722
C           0.903743       -1.096796       -0.506443
H           1.452888       -1.609925        0.495656
C           1.268581        0.118162       -0.806901
H           2.105251        0.745991       -0.041519
H           1.530130        0.510161       -1.764680
H          -1.167593       -2.248399        0.555968
C          -0.935737       -1.218046        0.286385
H           0.159535        2.578972       -0.538825
C          -0.727058        1.188827        0.897517
H          -1.222285       -0.441567        2.206129
C          -1.093488       -0.196753        1.203347
H          -0.581073        1.839133        1.677250
C          -0.180235        1.585101       -0.336736
H          -0.841115        1.030549       -1.322385
H          -1.395547       -0.923106       -0.865039
16
gen_9_frame_0029
H           0.876005       -1.861303       -1.228922
C           0.911343       -1.098796       -0.503843
H           1.450288       -1.609325        0.495256
C           1.276181        0.120162       -0.804301
H           2.102651        0.745391       -0.041919
H           1.528130        0.509161       -1.765880
H          -1.172193       -2.246399        0.554768
C          -0.942937       -1.215646        0.284185
H           0.154935        2.576972       -0.540025
C          -0.727058        1.187427        0.897117
H          -1.220285       -0.441767        2.208129
C          -1.093688       -0.195353        1.202947
H          -0.579073        1.839333        1.679250
C          -0.187435        1.582701       -0.338936
H          -0.837715        1.031149       -1.319585
H          -1.392147       -0.923706       -0.862239
16
gen_9_frame_0030
H           0.874005       -1.860303       -1.230122
C           0.918943       -1.100796       -0.501243
H           1.447688       -1.608725        0.494856
C           1.283781        0.122162       -0.801701
H           2.100051        0.744791       -0.042319
H           1.526130        0.508161       -1.767080
H          -1.176793       -2.244399        0.553568
C          -0.950137       -1.213246        0.281985
H           0.150335        2.574972       -0.541225
C          -0.727058        1.186027        0.896717
H          -1.218285       -0.441967        2.210129
C          -1.093888       -0.193953        1.202547
H          -0.577073        1.839533        1.681250
C          -0.194635        1.580301       -0.341136
H          -0.834315        1.031749       -1.316785
H          -1.388747       -0.924306       -0.859439
16
gen_9_frame_0031
H           0.872005       -1.859303       -1.231322
C           0.926543       -1.102796       -0.498643
H           1.445088       -1.608125        0.494456
C           1.291381        0.124162       -0.799101
H           2.097451        0.744191       -0.042719
H           1.524130        0.507161       -1.768280
H          -1.181393       -2.242399        0.552368
C          -0.957337       -1.210846        0.279785
H           0.145735        2.572972       -0.542425
C          -0.727058        1.184627        0.896317
H          -1.216285       -0.442167        2.212129
C          -1.094088       -0.192553        1.202147
H          -0.575073        1.839733        1.683250
C          -0.201835        1.577901       -0.343336
H          -0.830915        1.032349       -1.313985
H          -1.385347       -0.924906       -0.856639
16
gen_9_frame_0032
H           0.870005       -1.858303       -1.232522
C           0.934143       -1.104796       -0.496043
H           1.442488       -1.607525        0.494056
C           1.298981        0.126162       -0.796501
H           2.094851        0.743591       -0.043119
H           1.522130        0.506161       -1.769480
H          -1.185993       -2.240399        0.551168
C          -0.964537       -1.208446        0.277585
H           0.141135        2.570972       -0.543625
C          -0.727058        1.183227        0.895917
H          -1.214285       -0.442367        2.214129
C          -1.094288       -0.191153        1.201747
H          -0.573073        1.839933        1.685250
C          -0.209035        1.575501       -0.345536
H          -0.827515        1.032949       -1.311185
H          -1.381947       -0.925506       -0.853839
16
gen_9_frame_0033
H           0.868005       -1.857303       -1.233722
C           0.941743       -1.106796       -0.493443
H           1.439888       -1.606925        0.493656
C           1.306581        0.128162       -0.793901
H           2.092251        0.742991       -0.043519
H           1.520130        0.505161       -1.770680
H          -1.190593       -2.238399        0.549968
C          -0.971737       -1.206046        0.275385
H           0.136535        2.568972       -0.544825
C          -0.727058        1.181827        0.895517
H          -1.212285       -0.442567        2.216129
C          -1.094488       -0.189753        1.201347
H          -0.571073        1.840133        1.687250
C          -0.216235        1.573101       -0.347736
H          -0.824115        1.033549       -1.308385
H          -1.378547       -0.926106       -0.851039
16
gen_9_frame_0034
H           0.866005       -1.856303       -1.234922
C           0.949343       -1.108796       -0.490843
H           1.437288       -1.606325        0.493256
C           1.314181        0.130162       -0.791301
H           2.089651        0.742391       -0.043919
H           1.518130        0.504161       -1.771880
H          -1.195193       -2.236399        0.548768
C          -0.978937       -1.203646        0.273185
H           0.131935        2.566972       -0.546025
C          -0.727058        1.180427        0.895117
H          -1.210285       -0.442767        2.218129
C          -1.094688       -0.188353        1.200947
H          -0.569073        1.840333        1.689250
C          -0.223435        1.570701       -0.349936
H          -0.820715        1.034149       -1.305585
H          -1.375147       -0.926706       -0.848239
16
gen_9_frame_0035
H           0.864005       -1.855303       -1.236122
C           0.956943       -1.110796       -0.488243
H           1.434688       -1.605725        0.492856
C           1.321781        0.132162       -0.788701
H           2.087051        0.741791       -0.044319
H           1.516130        0.503161       -1.773080
H          -1.199793       -2.234399        0.547568
C          -0.986137       -1.201246        0.270985
H           0.127335        2.564972       -0.547225
C          -0.727058        1.179027        0.894717
H          -1.208285       -0.442967        2.220129
C          -1.094888       -0.186953        1.200547
H          -0.567073        1.840533        1.691250
C          -0.230635        1.568301       -0.352136
H          -0.817315        1.034749       -1.302785
H          -1.371747       -0.927306       -0.845439
16
gen_9_frame_0036
H           0.862005       -1.854303       -1.237322
C           0.964543       -1.112796       -0.485643
H           1.432088       -1.605125        0.492456
C           1.329381        0.134162       -0.786101
H           2.084451        0.741191       -0.044719
H           1.514130        0.502161       -1.774280
H          -1.204393       -2.232399        0.546368
C          -0.993337       -1.198846        0.268785
H           0.122735        2.562972       -0.548425
C          -0.727058        1.177627        0.894317
H          -1.206285       -0.443167        2.222129
C          -1.095088       -0.185553        1.200147
H          -0.565073        1.840733        1.693250
C          -0.237835        1.565901       -0.354336
H          -0.813915        1.035349       -1.299985
H          -1.368347       -0.927906       -0.842639
16
gen_9_frame_0037
H           0.860005       -1.853303       -1.238522
C           0.972143       -1.114796       -0.483043
H           1.429488       -1.604525        0.492056
C           1.336981        0.136162       -0.783501
H           2.081851        0.740591       -0.045119
H           1.512130        0.501161       -1.775480
H          -1.208993       -2.230399        0.545168
C          -1.000537       -1.196446        0.266585
H           0.118135        2.560972       -0.549625
C          -0.727058        1.176227        0.893917
H          -1.204285       -0.443367        2.224129
C          -1.095288       -0.184153        1.199747
H          -0.563073        1.840933        1.695250
C          -0.245035        1.563501       -0.356536
H          -0.810515        1.035949       -1.297185
H          -1.364947       -0.928506       -0.839839
16
gen_9_frame_0038
H           0.858005       -1.852303       -1.239722
C           0.979743       -1.116796       -0.480443
H           1.426888       -1.603925        0.491656
C           1.344581        0.138162       -0.780901
H           2.079251        0.739991       -0.045519
H           1.510130        0.500161       -1.776680
H          -1.213593       -2.228399        0.543968
C          -1.007737       -1.194046        0.264385
H           0.113535        2.558972       -0.550825
C          -0.727058        1.174827        0.893517
H          -1.202285       -0.443567        2.226129
C          -1.095488       -0.182753        1.199347
H          -0.561073        1.841133        1.697250
C          -0.252235        1.561101       -0.358736
H          -0.807115        1.036549       -1.294385
H          -1.361547       -0.929106       -0.837039
16
gen_9_frame_0039
H           0.856005       -1.851303       -1.240922
C           0.987343       -1.118796       -0.477843
H           1.424288       -1.603325        0.491256
C           1.352181        0.140162       -0.778301
H           2.076651        0.739391       -0.045919
H           1.508130        0.499161       -1.777880
H          -1.218193       -2.226399        0.542768
C          -1.014937       -1.191646        0.262185
H           0.108935        2.556972       -0.552025
C          -0.727058        1.173427        0.893117
H          -1.200285       -0.443767        2.228129
C          -1.095688       -0.181353        1.198947
H          -0.559073        1.841333        1.699250
C          -0.259435        1.558701       -0.360936
H          -0.803715        1.037149       -1.291585
H          -1.358147       -0.929706       -0.834239
16
gen_9_frame_0040
H           0.854005       -1.850303       -1.242122
C           0.994943       -1.120796       -0.475243
H           1.421688       -1.602725        0.490856
C           1.359781        0.142162       -0.775701
H           2.074051        0.738791       -0.046319
H           1.506130        0.498161       -1.779080
H          -1.222793       -2.224399        0.541568
C          -1.022137       -1.189246        0.259985
H           0.104335        2.554972       -0.553225
C          -0.727058        1.172027        0.892717
H          -1.198285       -0.443967        2.230129
C          -1.095888       -0.179953        1.198547
H          -0.557073        1.841533        1.701250
C          -0.266635        1.556301       -0.363136
H          -0.800315        1.037749       -1.288785
H          -1.354747       -0.930306       -0.831439
16
gen_9_frame_0041
H           0.852005       -1.849303       -1.243322
C           1.002543       -1.122796       -0.472643
H           1.419088       -1.602125        0.490456
C           1.367381        0.144162       -0.773101
H           2.071451        0.738191       -0.046719
H           1.504130        0.497161       -1.780280
H          -1.227393       -2.222399        0.540368
C          -1.029337       -1.186846        0.257785
H           0.099735        2.552972       -0.554425
C          -0.727058        1.170627        0.892317
H          -1.196285       -0.444167        2.232129
C          -1.096088       -0.178553        1.198147
H          -0.555073        1.841733        1.703250
C          -0.273835        1.553901       -0.365336
H          -0.796915        1.038349       -1.285985
H          -1.351347       -0.930906       -0.828639
16
gen_9_frame_0042
H           0.850005       -1.848303       -1.244522
C           1.010143       -1.124796       -0.470043
H           1.416488       -1.601525        0.490056
C           1.374981        0.146162       -0.770501
H           2.068851        0.737591       -0.047119
H           1.502130        0.496161       -1.781480
H          -1.231993       -2.220399        0.539168
C          -1.036537       -1.184446        0.255585
H           0.095135        2.550972       -0.555625
C          -0.727058        1.169227        0.891917
H          -1.194285       -0.444367        2.234129
C          -1.096288       -0.177153        1.197747
H          -0.553073        1.841933        1.705250
C          -0.281035        1.551501       -0.367536
H          -0.793515        1.038949       -1.283185
H          -1.347947       -0.931506       -0.825839
16
gen_9_frame_0043
H           0.848005       -1.847303       -1.245722
C           1.017743       -1.126796       -0.467443
H           1.413888       -1.600925        0.489656
C           1.382581        0.148162       -0.767901
H           2.066251        0.736991       -0.047519
H           1.500130        0.495161       -1.782680
H          -1.236593       -2.218399        0.537968
C          -1.043737       -1.182046        0.253385
H           0.090535        2.548972       -0.556825
C          -0.727058        1.167827        0.891517
H          -1.192285       -0.444567        2.236129
C          -1.096488       -0.175753        1.197347
H          -0.551073        1.842133        1.707250
C          -0.288235        1.549101       -0.369736
H          -0.790115        1.039549       -1.280385
H          -1.344547       -0.932106       -0.823039
16
gen_9_frame_0044
H           0.846005       -1.846303       -1.246922
C           1.025343       -1.128796       -0.464843
H           1.411288       -1.600325        0.489256
C           1.390181        0.150162       -0.765301
H           2.063651        0.736391       -0.047919
H           1.498130        0.494161       -1.783880
H          -1.241193       -2.216399        0.536768
C          -1.050937       -1.179646        0.251185
H           0.085935        2.546972       -0.558025
C          -0.727058        1.166427        0.891117
H          -1.190285       -0.444767        2.238129
C          -1.096688       -0.174353        1.196947
H          -0.549073        1.842333        1.709250
C          -0.295435        1.546701       -0.371936
H          -0.786715        1.040149       -1.277585
H          -1.341147       -0.932706       -0.820239
16
gen_9_frame_0045
H           0.844005       -1.845303       -1.248122
C           1.032943       -1.130796       -0.462243
H           1.408688       -1.599725        0.488856
C           1.397781        0.152162       -0.762701
H           2.061051        0.735791       -0.048319
H           1.496130        0.493161       -1.785080
H          -1.245793       -2.214399        0.535568
C          -1.058137       -1.177246        0.248985
H           0.081335        2.544972       -0.559225
C          -0.727058        1.165027        0.890717
H          -1.188285       -0.444967        2.240129
C          -1.096888       -0.172953        1.196547
H          -0.547073        1.842533        1.711250
C          -0.302635        1.544301       -0.374136
H          -0.783315        1.040749       -1.274785
H          -1.337747       -0.933306       -0.817439
16
gen_9_frame_0046
H           0.842005       -1.844303       -1.249322
C           1.040543       -1.132796       -0.459643
H           1.406088       -1.599125        0.488456
C           1.405381        0.154162       -0.760101
H           2.058451        0.735191       -0.048719
H           1.494130        0.492161       -1.786280
H          -1.250393       -2.212399        0.534368
C          -1.065337       -1.174846        0.246785
H           0.076735        2.542972       -0.560425
C          -0.727058        1.163627        0.890317
H          -1.186285       -0.445167        2.242129
C          -1.097088       -0.171553        1.196147
H          -0.545073        1.842733        1.713250
C          -0.309835        1.541901       -0.376336
H          -0.779915        1.041349       -1.271985
H          -1.334347       -0.933906       -0.814639
16
gen_9_frame_0047
H           0.840005       -1.843303       -1.250522
C           1.048143       -1.134796       -0.457043
H           1.403488       -1.598525        0.488056
C           1.412981        0.156162       -0.757501
H           2.055851        0.734591       -0.049119
H           1.492130        0.491161       -1.787480
H          -1.254993       -2.210399        0.533168
C          -1.072537       -1.172446        0.244585
H           0.072135        2.540972       -0.561625
C          -0.727058        1.162227        0.889917
H          -1.184285       -0.445367        2.244129
C          -1.097288       -0.170153        1.195747
H          -0.543073        1.842933        1.715250
C          -0.317035        1.539501       -0.378536
H          -0.776515        1.041949       -1.269185
H          -1.330947       -0.934506       -0.811839
16
gen_9_frame_0048
H           0.838005       -1.842303       -1.251722
C           1.055743       -1.136796       -0.454443
H           1.400888       -1.597925        0.487656
C           1.420581        0.158162       -0.754901
H           2.053251        0.733991       -0.049519
H           1.490130        0.490161       -1.788680
H          -1.259593       -2.208399        0.531968
C          -1.079737       -1.170046        0.242385
H           0.067535        2.538972       -0.562825
C          -0.727058        1.160827        0.889517
H          -1.182285       -0.445567        2.246129
C          -1.097488       -0.168753        1.195347
H          -0.541073        1.843133        1.717250
C          -0.324235        1.537101       -0.380736
H          -0.773115        1.042549       -1.266385
H          -1.327547       -0.935106       -0.809039
16
gen_9_frame_0049
H           0.836005       -1.841303       -1.252922
C           1.063343       -1.138796       -0.451843
H           1.398288       -1.597325        0.487256
C           1.428181        0.160162       -0.752301
H           2.050651        0.733391       -0.049919
H           1.488130        0.489161       -1.789880
H          -1.264193       -2.206399        0.530768
C          -1.086937       -1.167646        0.240185
H           0.062935        2.536972       -0.564025
C          -0.727058        1.159427        0.889117
H          -1.180285       -0.445767        2.248129
C          -1.097688       -0.167353        1.194947
H          -0.539073        1.843333        1.719250
C          -0.331435        1.534701       -0.382936
H          -0.769715        1.043149       -1.263585
H          -1.324147       -0.935706       -0.806239
16
gen_9_frame_0050
H           0.834005       -1.840303       -1.254122
C           1.070943       -1.140796       -0.449243
H           1.395688       -1.596725        0.486856
C           1.435781        0.162162       -0.749701
H           2.048051        0.732791       -0.050319
H           1.486130        0.488161       -1.791080
H          -1.268793       -2.204399        0.529568
C          -1.094137       -1.165246        0.237985
H           0.058335        2.534972       -0.565225
C          -0.727058        1.158027        0.888717
H          -1.178285       -0.445967        2.250129
C          -1.097888       -0.165953        1.194547
H          -0.537073        1.843533        1.721250
C          -0.338635        1.532301       -0.385136
H          -0.766315        1.043749       -1.260785
H          -1.320747       -0.936306       -0.803439
16
gen_9_frame_0051
H           0.831964       -1.839283       -1.255346
C           1.078698       -1.142837       -0.446590
H           1.393035       -1.596113        0.486448
C           1.443536        0.164203       -0.747048
H           2.045398        0.732179       -0.050727
H           1.484089        0.487141       -1.792304
H          -1.273487       -2.202358        0.528344
C          -1.101484       -1.162797        0.235740
H           0.053641        2.532931       -0.566449
C          -0.727058        1.156598        0.888309
H          -1.176244       -0.446171        2.252170
C          -1.098092       -0.164524        1.194139
H          -0.535032        1.843737        1.723291
C          -0.345982        1.529852       -0.387381
H          -0.762846        1.044361       -1.257928
H          -1.317278       -0.936918       -0.800582
16
gen_9_frame_0052
H           0.829923       -1.838262       -1.256571
C           1.086453       -1.144878       -0.443937
H           1.390382       -1.595501        0.486040
C           1.451291        0.166244       -0.744395
H           2.042745        0.731567       -0.051135
H           1.482048        0.486120       -1.793529
H          -1.278181       -2.200317        0.527119
C          -1.108831       -1.160348        0.233495
H           0.048947        2.530890       -0.567674
C          -0.727058        1.155170        0.887901
H          -1.174203       -0.446375        2.254211
C          -1.098296       -0.163096        1.193731
H          -0.532991        1.843941        1.725332
C          -0.353329        1.527403       -0.389626
H          -0.759376        1.044973       -1.255071
H          -1.313808       -0.937530       -0.797725
16
gen_9_frame_0053
H           0.827883       -1.837242       -1.257795
C           1.094208       -1.146918       -0.441284
H           1.387729       -1.594888        0.485632
C           1.459046        0.168284       -0.741742
H           2.040092        0.730954       -0.051543
H           1.480008        0.485100       -1.794753
H          -1.282875       -2.198277        0.525895
C          -1.116178       -1.157899        0.231250
H           0.044253        2.528850       -0.568898
C          -0.727058        1.153741        0.887493
H          -1.172163       -0.446579        2.256251
C          -1.098500       -0.161667        1.193323
H          -0.530951        1.844145        1.727372
C          -0.360676        1.524954       -0.391871
H          -0.755907        1.045586       -1.252214
H          -1.310339       -0.938143       -0.794868
16
gen_9_frame_0054
H           0.825842       -1.836221       -1.259020
C           1.101963       -1.148959       -0.438631
H           1.385076       -1.594276        0.485223
C           1.466801        0.170325       -0.739089
H           2.037439        0.730342       -0.051952
H           1.477967        0.484079       -1.795978
H          -1.287569       -2.196236        0.524670
C          -1.123525       -1.155450        0.229005
H           0.039559        2.526809       -0.570123
C          -0.727058        1.152313        0.887084
H          -1.170122       -0.446783        2.258292
C          -1.098704       -0.160239        1.192914
H          -0.528910        1.844349        1.729413
C          -0.368023        1.522505       -0.394116
H          -0.752437        1.046198       -1.249356
H          -1.306869       -0.938755       -0.792010
16
gen_9_frame_0055
H           0.823801       -1.835201       -1.260244
C           1.109719       -1.151000       -0.435978
H           1.382423       -1.593664        0.484815
C           1.474557        0.172366       -0.736436
H           2.034786        0.729730       -0.052360
H           1.475926        0.483059       -1.797202
H          -1.292262       -2.194195        0.523446
C          -1.130872       -1.153001        0.226761
H           0.034866        2.524768       -0.571347
C          -0.727058        1.150884        0.886676
H          -1.168081       -0.446987        2.260333
C          -1.098908       -0.158810        1.192506
H          -0.526869        1.844553        1.731454
C          -0.375370        1.520056       -0.396360
H          -0.748968        1.046810       -1.246499
H          -1.303400       -0.939367       -0.789153
16
gen_9_frame_0056
H           0.821760       -1.834181       -1.261469
C           1.117474       -1.153041       -0.433325
H           1.379770       -1.593052        0.484407
C           1.482312        0.174407       -0.733783
H           2.032133        0.729118       -0.052768
H           1.473885        0.482039       -1.798427
H          -1.296956       -2.192154        0.522221
C          -1.138219       -1.150552        0.224516
H           0.030172        2.522727       -0.572572
C          -0.727058        1.149456        0.886268
H          -1.166040       -0.447191        2.262374
C          -1.099112       -0.157382        1.192098
H          -0.524828        1.844757        1.733495
C          -0.382717        1.517607       -0.398605
H          -0.745499        1.047422       -1.243642
H          -1.299931       -0.939979       -0.786296
16
gen_9_frame_0057
H           0.819719       -1.833160       -1.262693
C           1.125229       -1.155082       -0.430672
H           1.377117       -1.592439        0.483999
C           1.490067        0.176448       -0.731130
H           2.029480        0.728505       -0.053176
H           1.471844        0.481018       -1.799651
H          -1.301650       -2.190113        0.520997
C          -1.145566       -1.148103        0.222271
H           0.025478        2.520686       -0.573796
C          -0.727058        1.148027        0.885860
H          -1.163999       -0.447396        2.264415
C          -1.099317       -0.155953        1.191690
H          -0.522787        1.844962        1.735536
C          -0.390064        1.515158       -0.400850
H          -0.742029        1.048035       -1.240785
H          -1.296461       -0.940592       -0.783439
16
gen_9_frame_0058
H           0.817678       -1.832140       -1.263918
C           1.132984       -1.157123       -0.428019
H           1.374464       -1.591827        0.483591
C           1.497822        0.178489       -0.728477
H           2.026827        0.727893       -0.053584
H           1.469803        0.479998       -1.800876
H          -1.306344       -2.188072        0.519772
C          -1.152913       -1.145654        0.220026
H           0.020784        2.518645       -0.575021
C          -0.727058        1.146598        0.885452
H          -1.161958       -0.447600        2.266456
C          -1.099521       -0.154524        1.191282
H          -0.520746        1.845166        1.737577
C          -0.397411        1.512709       -0.403095
H          -0.738560        1.048647       -1.237928
H          -1.292992       -0.941204       -0.780582
16
gen_9_frame_0059
H           0.815638       -1.831119       -1.265142
C           1.140739       -1.159163       -0.425365
H           1.371810       -1.591215        0.483183
C           1.505577        0.180529       -0.725823
H           2.024173        0.727281       -0.053992
H           1.467763        0.478977       -1.802100
H          -1.311038       -2.186032        0.518548
C          -1.160259       -1.143205        0.217781
H           0.016090        2.516605       -0.576245
C          -0.727058        1.145170        0.885044
H          -1.159918       -0.447804        2.268496
C          -1.099725       -0.153096        1.190874
H          -0.518706        1.845370        1.739617
C          -0.404757        1.510260       -0.405340
H          -0.735091        1.049259       -1.235071
H          -1.289523       -0.941816       -0.777725
16
gen_9_frame_0060
H           0.813597       -1.830099       -1.266367
C           1.148494       -1.161204       -0.422712
H           1.369157       -1.590603        0.482774
C           1.513332        0.182570       -0.723170
H           2.021520        0.726669       -0.054401
H           1.465722        0.477957       -1.803325
H          -1.315732       -2.183991        0.517323
C          -1.167606       -1.140756        0.215536
H           0.011396        2.514564       -0.577470
C          -0.727058        1.143741        0.884635
H          -1.157877       -0.448008        2.270537
C          -1.099929       -0.151667        1.190465
H          -0.516665        1.845574        1.741658
C          -0.412104        1.507811       -0.407585
H          -0.731621        1.049871       -1.232214
H          -1.286053       -0.942428       -0.774868
16
gen_9_frame_0061
H           0.811556       -1.829079       -1.267591
C           1.156249       -1.163245       -0.420059
H           1.366504       -1.589990        0.482366
C           1.521087        0.184611       -0.720517
H           2.018867        0.726056       -0.054809
H           1.463681        0.476937       -1.804549
H          -1.320426       -2.181950        0.516099
C          -1.174953       -1.138307        0.213291
H           0.006702        2.512523       -0.578694
C          -0.727058        1.142313        0.884227
H          -1.155836       -0.448212        2.272578
C          -1.100133       -0.150239        1.190057
H          -0.514624        1.845778        1.743699
C          -0.419451        1.505362       -0.409830
H          -0.728152        1.050484       -1.229356
H          -1.282584       -0.943041       -0.772010
16
gen_9_frame_0062
H           0.809515       -1.828058       -1.268816
C           1.164004       -1.165286       -0.417406
H           1.363851       -1.589378        0.481958
C           1.528842        0.186652       -0.717864
H           2.016214        0.725444       -0.055217
H           1.461640        0.475916       -1.805774
H          -1.325120       -2.179909        0.514874
C          -1.182300       -1.135858        0.211046
H           0.002008        2.510482       -0.579919
C          -0.727058        1.140884        0.883819
H          -1.153795       -0.448416        2.274619
C          -1.100337       -0.148810        1.189649
H          -0.512583        1.845982        1.745740
C          -0.426798        1.502913       -0.412075
H          -0.724682        1.051096       -1.226499
H          -1.279114       -0.943653       -0.769153
16
gen_9_frame_0063
H           0.807474       -1.827038       -1.270040
C           1.171759       -1.167327       -0.414753
H           1.361198       -1.588766        0.481550
C           1.536597        0.188693       -0.715211
H           2.013561        0.724832       -0.055625
H           1.459599        0.474896       -1.806998
H          -1.329813       -2.177868        0.513650
C          -1.189647       -1.133409        0.208801
H          -0.002685        2.508441       -0.581143
C          -0.727058        1.139456        0.883411
H          -1.151754       -0.448620        2.276660
C          -1.100541       -0.147382        1.189241
H          -0.510542        1.846186        1.747781
C          -0.434145        1.500464       -0.414320
H          -0.721213        1.051708       -1.223642
H          -1.275645       -0.944265       -0.766296
16
gen_9_frame_0064
H           0.805434       -1.826017       -1.271265
C           1.179514       -1.169367       -0.412100
H           1.358545       -1.588154        0.481142
C           1.544352        0.190733       -0.712558
H           2.010908        0.724220       -0.056033
H           1.457559        0.473875       -1.808223
H          -1.334507       -2.175828        0.512425
C          -1.196994       -1.130960        0.206556
H          -0.007379        2.506401       -0.582368
C          -0.727058        1.138027        0.883003
H          -1.149714       -0.448824        2.278700
C          -1.100745       -0.145953        1.188833
H          -0.508502        1.846390        1.749821
C          -0.441492        1.498015       -0.416565
H          -0.717744        1.052320       -1.220785
H          -1.272176       -0.944877       -0.763439
16
gen_9_frame_0065
H           0.803393       -1.824997       -1.272489
C           1.187270       -1.171408       -0.409447
H           1.355892       -1.587541        0.480734
C           1.552108        0.192774       -0.709905
H           2.008255        0.723607       -0.056441
H           1.455518        0.472855       -1.809447
H          -1.339201       -2.173787        0.511201
C          -1.204341       -1.128511        0.204312
H          -0.012073        2.504360       -0.583592
C          -0.727058        1.136598        0.882595
H          -1.147673       -0.449028        2.280741
C          -1.100949       -0.144524        1.188425
H          -0.506461        1.846594        1.751862
C          -0.448839        1.495566       -0.418809
H          -0.714274        1.052933       -1.217928
H          -1.268706       -0.945490       -0.760582
16
gen_9_frame_0066
H           0.801352       -1.823976       -1.273714
C           1.195025       -1.173449       -0.406794
H           1.353239       -1.586929        0.480325
C           1.559863        0.194815       -0.707252
H           2.005602        0.722995       -0.056850
H           1.453477        0.471834       -1.810672
H          -1.343895       -2.171746        0.509976
C          -1.211688       -1.126062        0.202067
H          -0.016767        2.502319       -0.584817
C          -0.727058        1.135170        0.882186
H          -1.145632       -0.449232        2.282782
C          -1.101153       -0.143096        1.188016
H          -0.504420        1.846798        1.753903
C          -0.456186        1.493117       -0.421054
H          -0.710805        1.053545       -1.215071
H          -1.265237       -0.946102       -0.757725
16
gen_9_frame_0067
H           0.799311       -1.822956       -1.274938
C           1.202780       -1.175490       -0.404141
H           1.350586       -1.586317        0.479917
C           1.567618        0.196856       -0.704599
H           2.002949        0.722383       -0.057258
H           1.451436        0.470814       -1.811896
H          -1.348589       -2.169705        0.508752
C          -1.219035       -1.123613        0.199822
H          -0.021461        2.500278       -0.586041
C          -0.727058        1.133741        0.881778
H          -1.143591       -0.449436        2.284823
C          -1.101357       -0.141667        1.187608
H          -0.502379        1.847002        1.755944
C          -0.463533        1.490668       -0.423299
H          -0.707335        1.054157       -1.212214
H          -1.261767       -0.946714       -0.754868
16
gen_9_frame_0068
H           0.797270       -1.821936       -1.276163
C           1.210535       -1.177531       -0.401488
H           1.347933       -1.585705        0.479509
C           1.575373        0.198897       -0.701946
H           2.000296        0.721771       -0.057666
H           1.449395        0.469794       -1.813121
H          -1.353283       -2.167664        0.507527
C          -1.226382       -1.121164        0.197577
H          -0.026155        2.498237       -0.587266
C          -0.727058        1.132313        0.881370
H          -1.141550       -0.449640        2.286864
C          -1.101561       -0.140239        1.187200
H          -0.500338        1.847206        1.757985
C          -0.470880        1.488219       -0.425544
H          -0.703866        1.054769       -1.209356
H          -1.258298       -0.947326       -0.752010
16
gen_9_frame_0069
H           0.795229       -1.820915       -1.277387
C           1.218290       -1.179572       -0.398835
H           1.345280       -1.585092        0.479101
C           1.583128        0.200938       -0.699293
H           1.997643        0.721158       -0.058074
H           1.447354        0.468773       -1.814345
H          -1.357977       -2.165623        0.506303
C          -1.233729       -1.118715        0.195332
H          -0.030849        2.496196       -0.588490
C          -0.727058        1.130884        0.880962
H          -1.139509       -0.449845        2.288905
C          -1.101766       -0.138810        1.186792
H          -0.498297        1.847411        1.760026
C          -0.478227        1.485770       -0.427789
H          -0.700397        1.055382       -1.206499
H          -1.254829       -0.947939       -0.749153
16
gen_9_frame_0070
H           0.793189       -1.819895       -1.278612
C           1.226045       -1.181612       -0.396182
H           1.342627       -1.584480        0.478693
C           1.590883        0.202978       -0.696640
H           1.994990        0.720546       -0.058482
H           1.445314        0.467753       -1.815570
H          -1.362671       -2.163583        0.505078
C          -1.241076       -1.116266        0.193087
H          -0.035543        2.494156       -0.589715
C          -0.727058        1.129456        0.880554
H          -1.137469       -0.450049        2.290945
C          -1.101970       -0.137382        1.186384
H          -0.496257        1.847615        1.762066
C          -0.485574        1.483321       -0.430034
H          -0.696927        1.055994       -1.203642
H          -1.251359       -0.948551       -0.746296
16
gen_9_frame_0071
H           0.791148       -1.818874       -1.279836
C           1.233800       -1.183653       -0.393529
H           1.339974       -1.583868        0.478285
C           1.598638        0.205019       -0.693987
H           1.992337        0.719934       -0.058890
H           1.443273        0.466732       -1.816794
H          -1.367364       -2.161542        0.503854
C          -1.248423       -1.113817        0.190842
H          -0.040236        2.492115       -0.590939
C          -0.727058        1.128027        0.880146
H          -1.135428       -0.450253        2.292986
C          -1.102174       -0.135953        1.185976
H          -0.494216        1.847819        1.764107
C          -0.492921        1.480872       -0.432279
H          -0.693458        1.056606       -1.200785
H          -1.247890       -0.949163       -0.743439
16
gen_9_frame_0072
H           0.789107       -1.817854       -1.281061
C           1.241555       -1.185694       -0.390876
H           1.337321       -1.583256        0.477876
C           1.606393        0.207060       -0.691334
H           1.989684        0.719322       -0.059299
H           1.441232        0.465712       -1.818019
H          -1.372058       -2.159501        0.502629
C          -1.255770       -1.111368        0.188597
H          -0.044930        2.490074       -0.592164
C          -0.727058        1.126598        0.879737
H          -1.133387       -0.450457        2.295027
C          -1.102378       -0.134524        1.185567
H          -0.492175        1.848023        1.766148
C          -0.500268        1.478423       -0.434524
H          -0.689988        1.057218       -1.197928
H          -1.244420       -0.949775       -0.740582
16
gen_9_frame_0073
H           0.787066       -1.816834       -1.282285
C           1.249310       -1.187735       -0.388223
H           1.334668       -1.582643        0.477468
C           1.614148        0.209101       -0.688681
H           1.987031        0.718709       -0.059707
H           1.439191        0.464692       -1.819243
H          -1.376752       -2.157460        0.501405
C          -1.263117       -1.108919        0.186352
H          -0.049624        2.488033       -0.593388
C          -0.727058        1.125170        0.879329
H          -1.131346       -0.450661        2.297068
C          -1.102582       -0.133096        1.185159
H          -0.490134        1.848227        1.768189
C          -0.507615        1.475974       -0.436769
H          -0.686519        1.057831       -1.195071
H          -1.240951       -0.950388       -0.737725
16
gen_9_frame_0074
H           0.785025       -1.815813       -1.283510
C           1.257065       -1.189776       -0.385570
H           1.332015       -1.582031        0.477060
C           1.621903        0.211142       -0.686028
H           1.984378        0.718097       -0.060115
H           1.437150        0.463671       -1.820468
H          -1.381446       -2.155419        0.500180
C          -1.270464       -1.106470        0.184107
H          -0.054318        2.485992       -0.594613
C          -0.727058        1.123741        0.878921
H          -1.129305       -0.450865        2.299109
C          -1.102786       -0.131667        1.184751
H          -0.488093        1.848431        1.770230
C          -0.514962        1.473525       -0.439014
H          -0.683050        1.058443       -1.192214
H          -1.237482       -0.951000       -0.734868
16
gen_9_frame_0075
H           0.782985       -1.814793       -1.284734
C           1.264821       -1.191816       -0.382916
H           1.329361       -1.581419        0.476652
C           1.629659        0.213182       -0.683374
H           1.981724        0.717485       -0.060523
H           1.435110        0.462651       -1.821692
H          -1.386140       -2.153379        0.498956
C          -1.277810       -1.104022        0.181863
H          -0.059012        2.483952       -0.595837
C          -0.727058        1.122313        0.878513
H          -1.127265       -0.451069        2.301149
C          -1.102990       -0.130239        1.184343
H          -0.486053        1.848635        1.772270
C          -0.522308        1.471077       -0.441258
H          -0.679580        1.059055       -1.189356
H          -1.234012       -0.951612       -0.732010
16
gen_9_frame_0076
H           0.780944       -1.813772       -1.285959
C           1.272576       -1.193857       -0.380263
H           1.326708       -1.580807        0.476244
C           1.637414        0.215223       -0.680721
H           1.979071        0.716873       -0.060931
H           1.433069        0.461630       -1.822917
H          -1.390834       -2.151338        0.497731
C          -1.285157       -1.101573        0.179618
H          -0.063706        2.481911       -0.597062
C          -0.727058        1.120884        0.878105
H          -1.125224       -0.451273        2.303190
C          -1.103194       -0.128810        1.183935
H          -0.484012        1.848839        1.774311
C          -0.529655        1.468628       -0.443503
H          -0.676111        1.059667       -1.186499
H          -1.230543       -0.952224       -0.729153
16
gen_9_frame_0077
H           0.778903       -1.812752       -1.287183
C           1.280331       -1.195898       -0.377610
H           1.324055       -1.580194        0.475836
C           1.645169        0.217264       -0.678068
H           1.976418        0.716260       -0.061339
H           1.431028        0.460610       -1.824141
H          -1.395528       -2.149297        0.496507
C          -1.292504       -1.099124        0.177373
H          -0.068400        2.479870       -0.598286
C          -0.727058        1.119456        0.877697
H          -1.123183       -0.451477        2.305231
C          -1.103398       -0.127382        1.183527
H          -0.481971        1.849043        1.776352
C          -0.537002        1.466179       -0.445748
H          -0.672642        1.060280       -1.183642
H          -1.227074       -0.952837       -0.726296
16
gen_9_frame_0078
H           0.776862       -1.811732       -1.288408
C           1.288086       -1.197939       -0.374957
H           1.321402       -1.579582        0.475427
C           1.652924        0.219305       -0.675415
H           1.973765        0.715648       -0.061748
H           1.428987        0.459590       -1.825366
H          -1.400222       -2.147256        0.495282
C          -1.299851       -1.096675        0.175128
H          -0.073094        2.477829       -0.599511
C          -0.727058        1.118027        0.877288
H          -1.121142       -0.451681        2.307272
C          -1.103602       -0.125953        1.183118
H          -0.479930        1.849247        1.778393
C          -0.544349        1.463730       -0.447993
H          -0.669172        1.060892       -1.180785
H          -1.223604       -0.953449       -0.723439
16
gen_9_frame_0079
H           0.774821       -1.810711       -1.289632
C           1.295841       -1.199980       -0.372304
H           1.318749       -1.578970        0.475019
C           1.660679        0.221346       -0.672762
H           1.971112        0.715036       -0.062156
H           1.426946        0.458569       -1.826590
H          -1.404915       -2.145215        0.494058
C          -1.307198       -1.094226        0.172883
H          -0.077787        2.475788       -0.600735
C          -0.727058        1.116598        0.876880
H          -1.119101       -0.451885        2.309313
C          -1.103806       -0.124524        1.182710
H          -0.477889        1.849451        1.780434
C          -0.551696        1.461281       -0.450238
H          -0.665703        1.061504       -1.177928
H          -1.220135       -0.954061       -0.720582
16
gen_9_frame_0080
H           0.772781       -1.809691       -1.290857
C           1.303596       -1.202020       -0.369651
H           1.316096       -1.578358        0.474611
C           1.668434        0.223386       -0.670109
H           1.968459        0.714424       -0.062564
H           1.424906        0.457549       -1.827815
H          -1.409609       -2.143175        0.492833
C          -1.314545       -1.091777        0.170638
H          -0.082481        2.473748       -0.601960
C          -0.727058        1.115170        0.876472
H          -1.117061       -0.452089        2.311353
C          -1.104010       -0.123096        1.182302
H          -0.475849        1.849655        1.782474
C          -0.559043        1.458832       -0.452483
H          -0.662233        1.062116       -1.175071
H          -1.216665       -0.954673       -0.717725
16
gen_9_frame_0081
H           0.770740       -1.808670       -1.292081
C           1.311351       -1.204061       -0.366998
H           1.313443       -1.577745        0.474203
C           1.676189        0.225427       -0.667456
H           1.965806        0.713811       -0.062972
H           1.422865        0.456528       -1.829039
H          -1.414303       -2.141134        0.491609
C          -1.321892       -1.089328        0.168393
H          -0.087175        2.471707       -0.603184
C          -0.727058        1.113741        0.876064
H          -1.115020       -0.452294        2.313394
C          -1.104215       -0.121667        1.181894
H          -0.473808        1.849860        1.784515
C          -0.566390        1.456383       -0.454728
H          -0.658764        1.062729       -1.172214
H          -1.213196       -0.955286       -0.714868
16
gen_9_frame_0082
H           0.768699       -1.807650       -1.293306
C           1.319106       -1.206102       -0.364345
H           1.310790       -1.577133        0.473795
C           1.683944        0.227468       -0.664803
H           1.963153        0.713199       -0.063380
H           1.420824        0.455508       -1.830264
H          -1.418997       -2.139093        0.490384
C          -1.329239       -1.086879        0.166148
H          -0.091869        2.469666       -0.604409
C          -0.727058        1.112313        0.875656
H          -1.112979       -0.452498        2.315435
C          -1.104419       -0.120239        1.181486
H          -0.471767        1.850064        1.786556
C          -0.573737        1.453934       -0.456973
H          -0.655295        1.063341       -1.169356
H          -1.209727       -0.955898       -0.712010
16
gen_9_frame_0083
H           0.766658       -1.806630       -1.294530
C           1.326861       -1.208143       -0.361692
H           1.308137       -1.576521        0.473387
C           1.691699        0.229509       -0.662150
H           1.960500        0.712587       -0.063788
H           1.418783        0.454488       -1.831488
H          -1.423691       -2.137052        0.489160
C          -1.336586       -1.084430        0.163903
H          -0.096563        2.467625       -0.605633
C          -0.727058        1.110884        0.875248
H          -1.110938       -0.452702        2.317476
C          -1.104623       -0.118810        1.181078
H          -0.469726        1.850268        1.788597
C          -0.581084        1.451485       -0.459218
H          -0.651825        1.063953       -1.166499
H          -1.206257       -0.956510       -0.709153
16
gen_9_frame_0084
H           0.764617       -1.805609       -1.295755
C           1.334616       -1.210184       -0.359039
H           1.305484       -1.575909        0.472978
C           1.699454        0.231550       -0.659497
H           1.957847        0.711975       -0.064197
H           1.416742        0.453467       -1.832713
H          -1.428385       -2.135011        0.487935
C          -1.343933       -1.081981        0.161658
H          -0.101257        2.465584       -0.606858
C          -0.727058        1.109456        0.874839
H          -1.108897       -0.452906        2.319517
C          -1.104827       -0.117382        1.180669
H          -0.467685        1.850472        1.790638
C          -0.588431        1.449036       -0.461463
H          -0.648356        1.064565       -1.163642
H          -1.202788       -0.957122       -0.706296
16
gen_9_frame_0085
H           0.762576       -1.804589       -1.296979
C           1.342372       -1.212225       -0.356386
H           1.302831       -1.575296        0.472570
C           1.707210        0.233591       -0.656844
H           1.955194        0.711362       -0.064605
H           1.414701        0.452447       -1.833937
H          -1.433079       -2.132970        0.486711
C          -1.351280       -1.079532        0.159414
H          -0.105951        2.463543       -0.608082
C          -0.727058        1.108027        0.874431
H          -1.106856       -0.453110        2.321558
C          -1.105031       -0.115953        1.180261
H          -0.465644        1.850676        1.792679
C          -0.595778        1.446587       -0.463707
H          -0.644886        1.065178       -1.160785
H          -1.199318       -0.957735       -0.703439
16
gen_9_frame_0086
H           0.760536       -1.803568       -1.298204
C           1.350127       -1.214265       -0.353733
H           1.300178       -1.574684        0.472162
C           1.714965        0.235631       -0.654191
H           1.952541        0.710750       -0.065013
H           1.412661        0.451426       -1.835162
H          -1.437773       -2.130930        0.485486
C          -1.358627       -1.077083        0.157169
H          -0.110645        2.461503       -0.609307
C          -0.727058        1.106598        0.874023
H          -1.104816       -0.453314        2.323598
C          -1.105235       -0.114524        1.179853
H          -0.463604        1.850880        1.794719
C          -0.603125        1.444138       -0.465952
H          -0.641417        1.065790       -1.157928
H          -1.195849       -0.958347       -0.700582
16
gen_9_frame_0087
H           0.758495       -1.802548       -1.299428
C           1.357882       -1.216306       -0.351080
H           1.297525       -1.574072        0.471754
C           1.722720        0.237672       -0.651538
H           1.949888        0.710138       -0.065421
H           1.410620        0.450406       -1.836386
H          -1.442466       -2.128889        0.484262
C          -1.365974       -1.074634        0.154924
H          -0.115338        2.459462       -0.610531
C          -0.727058        1.105170        0.873615
H          -1.102775       -0.453518        2.325639
C          -1.105439       -0.113096        1.179445
H          -0.461563        1.851084        1.796760
C          -0.610472        1.441689       -0.468197
H          -0.637948        1.066402       -1.155071
H          -1.192380       -0.958959       -0.697725
16
gen_9_frame_0088
H           0.756454       -1.801527       -1.300653
C           1.365637       -1.218347       -0.348427
H           1.294872       -1.573460        0.471346
C           1.730475        0.239713       -0.648885
H           1.947235        0.709526       -0.065829
H           1.408579        0.449385       -1.837611
H          -1.447160       -2.126848        0.483037
C          -1.373321       -1.072185        0.152679
H          -0.120032        2.457421       -0.611756
C          -0.727058        1.103741        0.873207
H          -1.100734       -0.453722        2.327680
C          -1.105643       -0.111667        1.179037
H          -0.459522        1.851288        1.798801
C          -0.617819        1.439240       -0.470442
H          -0.634478        1.067014       -1.152214
H          -1.188910       -0.959571       -0.694868
16
gen_9_frame_0089
H           0.754413       -1.800507       -1.301877
C           1.373392       -1.220388       -0.345774
H           1.292219       -1.572847        0.470938
C           1.738230        0.241754       -0.646232
H           1.944582        0.708913       -0.066237
H           1.406538        0.448365       -1.838835
H          -1.451854       -2.124807        0.481813
C          -1.380668       -1.069736        0.150434
H          -0.124726        2.455380       -0.612980
C          -0.727058        1.102313        0.872799
H          -1.098693       -0.453926        2.329721
C          -1.105847       -0.110239        1.178629
H          -0.457481        1.851492        1.800842
C          -0.625166        1.436791       -0.472687
H          -0.631009        1.067627       -1.149356
H          -1.185441       -0.960184       -0.692010
16
gen_9_frame_0090
H           0.752372       -1.799487       -1.303102
C           1.381147       -1.222429       -0.343121
H           1.289566       -1.572235        0.470529
C           1.745985        0.243795       -0.643579
H           1.941929        0.708301       -0.066646
H           1.404497        0.447345       -1.840060
H          -1.456548       -2.122766        0.480588
C          -1.388015       -1.067287        0.148189
H          -0.129420        2.453339       -0.614205
C          -0.727058        1.100884        0.872390
H          -1.096652       -0.454130        2.331762
C          -1.106051       -0.108810        1.178220
H          -0.455440        1.851696        1.802883
C          -0.632513        1.434342       -0.474932
H          -0.627539        1.068239       -1.146499
H          -1.181971       -0.960796       -0.689153
16
gen_9_frame_0091
H           0.750332       -1.798466       -1.304326
C           1.388902       -1.224469       -0.340467
H           1.286912       -1.571623        0.470121
C           1.753740        0.245835       -0.640925
H           1.939275        0.707689       -0.067054
H           1.402457        0.446324       -1.841284
H          -1.461242       -2.120726        0.479364
C          -1.395362       -1.064838        0.145944
H          -0.134114        2.451299       -0.615429
C          -0.727058        1.099456        0.871982
H          -1.094612       -0.454334        2.333802
C          -1.106255       -0.107382        1.177812
H          -0.453400        1.851900        1.804923
C          -0.639860        1.431893       -0.477177
H          -0.624070        1.068851       -1.143642
H          -1.178502       -0.961408       -0.686296
16
gen_9_frame_0092
H           0.748291       -1.797446       -1.305551
C           1.396657       -1.226510       -0.337814
H           1.284259       -1.571011        0.469713
C           1.761495        0.247876       -0.638272
H           1.936622        0.707077       -0.067462
H           1.400416        0.445304       -1.842509
H          -1.465936       -2.118685        0.478139
C          -1.402708       -1.062389        0.143699
H          -0.138808        2.449258       -0.616654
C          -0.727058        1.098027        0.871574
H          -1.092571       -0.454538        2.335843
C          -1.106459       -0.105953        1.177404
H          -0.451359        1.852104        1.806964
C          -0.647206        1.429444       -0.479422
H          -0.620601        1.069463       -1.140785
H          -1.175033       -0.962020       -0.683439
16
gen_9_frame_0093
H           0.746250       -1.796425       -1.306775
C           1.404412       -1.228551       -0.335161
H           1.281606       -1.570398        0.469305
C           1.769250        0.249917       -0.635619
H           1.933969        0.706464       -0.067870
H           1.398375        0.444283       -1.843733
H          -1.470630       -2.116644        0.476915
C          -1.410055       -1.059940        0.141454
H          -0.143502        2.447217       -0.617878
C          -0.727058        1.096598        0.871166
H          -1.090530       -0.454743        2.337884
C          -1.106664       -0.104524        1.176996
H          -0.449318        1.852309        1.809005
C          -0.654553        1.426995       -0.481667
H          -0.617131        1.070076       -1.137928
H          -1.171563       -0.962633       -0.680582
16
gen_9_frame_0094
H           0.744209       -1.795405       -1.308000
C           1.412167       -1.230592       -0.332508
H           1.278953       -1.569786        0.468897
C           1.777005        0.251958       -0.632966
H           1.931316        0.705852       -0.068278
H           1.396334        0.443263       -1.844958
H          -1.475324       -2.114603        0.475690
C          -1.417402       -1.057491        0.139209
H          -0.148196        2.445176       -0.619103
C          -0.727058        1.095170        0.870758
H          -1.088489       -0.454947        2.339925
C          -1.106868       -0.103096        1.176588
H          -0.447277        1.852513        1.811046
C          -0.661900        1.424546       -0.483912
H          -0.613662        1.070688       -1.135071
H          -1.168094       -0.963245       -0.677725
16
gen_9_frame_0095
H           0.742168       -1.794385       -1.309224
C           1.419923       -1.232633       -0.329855
H           1.276300       -1.569174        0.468489
C           1.784761        0.253999       -0.630313
H           1.928663        0.705240       -0.068686
H           1.394293        0.442243       -1.846182
H          -1.480017       -2.112562        0.474466
C          -1.424749       -1.055042        0.136965
H          -0.152889        2.443135       -0.620327
C          -0.727058        1.093741        0.870350
H          -1.086448       -0.455151        2.341966
C          -1.107072       -0.101667        1.176180
H          -0.445236        1.852717        1.813087
C          -0.669247        1.422097       -0.486156
H          -0.610193        1.071300       -1.132214
H          -1.164625       -0.963857       -0.674868
16
gen_9_frame_0096
H           0.740127       -1.793364       -1.310449
C           1.427678       -1.234674       -0.327202
H           1.273647       -1.568562        0.468080
C           1.792516        0.256040       -0.627660
H           1.926010        0.704628       -0.069095
H           1.392252        0.441222       -1.847407
H          -1.484711       -2.110521        0.473241
C          -1.432096       -1.052593        0.134720
H          -0.157583        2.441094       -0.621552
C          -0.727058        1.092313        0.869941
H          -1.084407       -0.455355        2.344007
C          -1.107276       -0.100239        1.175771
H          -0.443195        1.852921        1.815128
C          -0.676594        1.419648       -0.488401
H          -0.606723        1.071912       -1.129356
H          -1.161155       -0.964469       -0.672010
16
gen_9_frame_0097
H           0.738087       -1.792344       -1.311673
C           1.435433       -1.236714       -0.324549
H           1.270994       -1.567949        0.467672
C           1.800271        0.258080       -0.625007
H           1.923357        0.704015       -0.069503
H           1.390212        0.440202       -1.848631
H          -1.489405       -2.108481        0.472017
C          -1.439443       -1.050144        0.132475
H          -0.162277        2.439054       -0.622776
C          -0.727058        1.090884        0.869533
H          -1.082367       -0.455559        2.346047
C          -1.107480       -0.098810        1.175363
H          -0.441155        1.853125        1.817168
C          -0.683941        1.417199       -0.490646
H          -0.603254        1.072525       -1.126499
H          -1.157686       -0.965082       -0.669153
16
gen_9_frame_0098
H           0.736046       -1.791323       -1.312898
C           1.443188       -1.238755       -0.321896
H           1.268341       -1.567337        0.467264
C           1.808026        0.260121       -0.622354
H           1.920704        0.703403       -0.069911
H           1.388171        0.439181       -1.849856
H          -1.494099       -2.106440        0.470792
C          -1.446790       -1.047695        0.130230
H          -0.166971        2.437013       -0.624001
C          -0.727058        1.089456        0.869125
H          -1.080326       -0.455763        2.348088
C          -1.107684       -0.097382        1.174955
H          -0.439114        1.853329        1.819209
C          -0.691288        1.414750       -0.492891
H          -0.599784        1.073137       -1.123642
H          -1.154216       -0.965694       -0.666296
16
gen_9_frame_0099
H           0.734005       -1.790303       -1.314122
C           1.450943       -1.240796       -0.319243
H           1.265688       -1.566725        0.466856
C           1.815781        0.262162       -0.619701
H           1.918051        0.702791       -0.070319
H           1.386130        0.438161       -1.851080
H          -1.498793       -2.104399        0.469568
C          -1.454137       -1.045246        0.127985
H          -0.171665        2.434972       -0.625225
C          -0.727058        1.088027        0.868717
H          -1.078285       -0.455967        2.350129
C          -1.107888       -0.095953        1.174547
H          -0.437073        1.853533        1.821250
C          -0.698635        1.412301       -0.495136
H          -0.596315        1.073749       -1.120785
H          -1.150747       -0.966306       -0.663439